* #variable= 342 #constraint= 951 #equal= 11 intsize= 4
* intermediate entry = 3 - 2*(u + 2*v)
* auxiliaries: square XORs, then shifted bit products
+1 x1 +2 x2 +1 x7 +2 x8 +1 x13 +2 x14 = 4 ;
+1 x3 +2 x4 +1 x9 +2 x10 +1 x15 +2 x16 = 3 ;
+1 x5 +2 x6 +1 x11 +2 x12 +1 x17 +2 x18 = 6 ;
+1 x19 +2 x20 +1 x25 +2 x26 +1 x31 +2 x32 = 4 ;
+1 x21 +2 x22 +1 x27 +2 x28 +1 x33 +2 x34 = 6 ;
+1 x23 +2 x24 +1 x29 +2 x30 +1 x35 +2 x36 = 3 ;
+15 x1 +30 x2 -12 x7 -24 x8 -3 x13 -6 x14 >= 0 ;
+12 x1 +24 x2 +3 x7 +6 x8 -15 x13 -30 x14 >= 0 ;
+15 x19 +30 x20 -12 x25 -24 x26 -3 x31 -6 x32 >= 0 ;
+12 x19 +24 x20 +3 x25 +6 x26 -15 x31 -30 x32 >= 0 ;
+1 x1 +1 x2 -1 x37 >= 0 ;
-1 x1 -1 x2 -1 x37 >= -2 ;
+1 x1 -1 x2 +1 x37 >= 0 ;
-1 x1 +1 x2 +1 x37 >= 0 ;
+1 x3 +1 x4 -1 x38 >= 0 ;
-1 x3 -1 x4 -1 x38 >= -2 ;
+1 x3 -1 x4 +1 x38 >= 0 ;
-1 x3 +1 x4 +1 x38 >= 0 ;
+1 x5 +1 x6 -1 x39 >= 0 ;
-1 x5 -1 x6 -1 x39 >= -2 ;
+1 x5 -1 x6 +1 x39 >= 0 ;
-1 x5 +1 x6 +1 x39 >= 0 ;
+1 x7 +1 x8 -1 x40 >= 0 ;
-1 x7 -1 x8 -1 x40 >= -2 ;
+1 x7 -1 x8 +1 x40 >= 0 ;
-1 x7 +1 x8 +1 x40 >= 0 ;
+1 x9 +1 x10 -1 x41 >= 0 ;
-1 x9 -1 x10 -1 x41 >= -2 ;
+1 x9 -1 x10 +1 x41 >= 0 ;
-1 x9 +1 x10 +1 x41 >= 0 ;
+1 x11 +1 x12 -1 x42 >= 0 ;
-1 x11 -1 x12 -1 x42 >= -2 ;
+1 x11 -1 x12 +1 x42 >= 0 ;
-1 x11 +1 x12 +1 x42 >= 0 ;
+1 x13 +1 x14 -1 x43 >= 0 ;
-1 x13 -1 x14 -1 x43 >= -2 ;
+1 x13 -1 x14 +1 x43 >= 0 ;
-1 x13 +1 x14 +1 x43 >= 0 ;
+1 x15 +1 x16 -1 x44 >= 0 ;
-1 x15 -1 x16 -1 x44 >= -2 ;
+1 x15 -1 x16 +1 x44 >= 0 ;
-1 x15 +1 x16 +1 x44 >= 0 ;
+1 x17 +1 x18 -1 x45 >= 0 ;
-1 x17 -1 x18 -1 x45 >= -2 ;
+1 x17 -1 x18 +1 x45 >= 0 ;
-1 x17 +1 x18 +1 x45 >= 0 ;
+1 x19 +1 x20 -1 x46 >= 0 ;
-1 x19 -1 x20 -1 x46 >= -2 ;
+1 x19 -1 x20 +1 x46 >= 0 ;
-1 x19 +1 x20 +1 x46 >= 0 ;
+1 x21 +1 x22 -1 x47 >= 0 ;
-1 x21 -1 x22 -1 x47 >= -2 ;
+1 x21 -1 x22 +1 x47 >= 0 ;
-1 x21 +1 x22 +1 x47 >= 0 ;
+1 x23 +1 x24 -1 x48 >= 0 ;
-1 x23 -1 x24 -1 x48 >= -2 ;
+1 x23 -1 x24 +1 x48 >= 0 ;
-1 x23 +1 x24 +1 x48 >= 0 ;
+1 x25 +1 x26 -1 x49 >= 0 ;
-1 x25 -1 x26 -1 x49 >= -2 ;
+1 x25 -1 x26 +1 x49 >= 0 ;
-1 x25 +1 x26 +1 x49 >= 0 ;
+1 x27 +1 x28 -1 x50 >= 0 ;
-1 x27 -1 x28 -1 x50 >= -2 ;
+1 x27 -1 x28 +1 x50 >= 0 ;
-1 x27 +1 x28 +1 x50 >= 0 ;
+1 x29 +1 x30 -1 x51 >= 0 ;
-1 x29 -1 x30 -1 x51 >= -2 ;
+1 x29 -1 x30 +1 x51 >= 0 ;
-1 x29 +1 x30 +1 x51 >= 0 ;
+1 x31 +1 x32 -1 x52 >= 0 ;
-1 x31 -1 x32 -1 x52 >= -2 ;
+1 x31 -1 x32 +1 x52 >= 0 ;
-1 x31 +1 x32 +1 x52 >= 0 ;
+1 x33 +1 x34 -1 x53 >= 0 ;
-1 x33 -1 x34 -1 x53 >= -2 ;
+1 x33 -1 x34 +1 x53 >= 0 ;
-1 x33 +1 x34 +1 x53 >= 0 ;
+1 x35 +1 x36 -1 x54 >= 0 ;
-1 x35 -1 x36 -1 x54 >= -2 ;
+1 x35 -1 x36 +1 x54 >= 0 ;
-1 x35 +1 x36 +1 x54 >= 0 ;
+1 x37 +1 x38 +1 x39 +1 x40 +1 x41 +1 x42 +1 x43 +1 x44 +1 x45 +1 x46 +1 x47 +1 x48 +1 x49 +1 x50 +1 x51 +1 x52 +1 x53 +1 x54 = 14 ;
+1 x1 -1 x55 >= 0 ;
+1 x3 -1 x55 >= 0 ;
-1 x1 -1 x3 +1 x55 >= -1 ;
+1 x1 -1 x56 >= 0 ;
+1 x4 -1 x56 >= 0 ;
-1 x1 -1 x4 +1 x56 >= -1 ;
+1 x2 -1 x57 >= 0 ;
+1 x3 -1 x57 >= 0 ;
-1 x2 -1 x3 +1 x57 >= -1 ;
+1 x2 -1 x58 >= 0 ;
+1 x4 -1 x58 >= 0 ;
-1 x2 -1 x4 +1 x58 >= -1 ;
+1 x3 -1 x59 >= 0 ;
+1 x5 -1 x59 >= 0 ;
-1 x3 -1 x5 +1 x59 >= -1 ;
+1 x3 -1 x60 >= 0 ;
+1 x6 -1 x60 >= 0 ;
-1 x3 -1 x6 +1 x60 >= -1 ;
+1 x4 -1 x61 >= 0 ;
+1 x5 -1 x61 >= 0 ;
-1 x4 -1 x5 +1 x61 >= -1 ;
+1 x4 -1 x62 >= 0 ;
+1 x6 -1 x62 >= 0 ;
-1 x4 -1 x6 +1 x62 >= -1 ;
+1 x5 -1 x63 >= 0 ;
+1 x7 -1 x63 >= 0 ;
-1 x5 -1 x7 +1 x63 >= -1 ;
+1 x5 -1 x64 >= 0 ;
+1 x8 -1 x64 >= 0 ;
-1 x5 -1 x8 +1 x64 >= -1 ;
+1 x6 -1 x65 >= 0 ;
+1 x7 -1 x65 >= 0 ;
-1 x6 -1 x7 +1 x65 >= -1 ;
+1 x6 -1 x66 >= 0 ;
+1 x8 -1 x66 >= 0 ;
-1 x6 -1 x8 +1 x66 >= -1 ;
+1 x7 -1 x67 >= 0 ;
+1 x9 -1 x67 >= 0 ;
-1 x7 -1 x9 +1 x67 >= -1 ;
+1 x7 -1 x68 >= 0 ;
+1 x10 -1 x68 >= 0 ;
-1 x7 -1 x10 +1 x68 >= -1 ;
+1 x8 -1 x69 >= 0 ;
+1 x9 -1 x69 >= 0 ;
-1 x8 -1 x9 +1 x69 >= -1 ;
+1 x8 -1 x70 >= 0 ;
+1 x10 -1 x70 >= 0 ;
-1 x8 -1 x10 +1 x70 >= -1 ;
+1 x9 -1 x71 >= 0 ;
+1 x11 -1 x71 >= 0 ;
-1 x9 -1 x11 +1 x71 >= -1 ;
+1 x9 -1 x72 >= 0 ;
+1 x12 -1 x72 >= 0 ;
-1 x9 -1 x12 +1 x72 >= -1 ;
+1 x10 -1 x73 >= 0 ;
+1 x11 -1 x73 >= 0 ;
-1 x10 -1 x11 +1 x73 >= -1 ;
+1 x10 -1 x74 >= 0 ;
+1 x12 -1 x74 >= 0 ;
-1 x10 -1 x12 +1 x74 >= -1 ;
+1 x11 -1 x75 >= 0 ;
+1 x13 -1 x75 >= 0 ;
-1 x11 -1 x13 +1 x75 >= -1 ;
+1 x11 -1 x76 >= 0 ;
+1 x14 -1 x76 >= 0 ;
-1 x11 -1 x14 +1 x76 >= -1 ;
+1 x12 -1 x77 >= 0 ;
+1 x13 -1 x77 >= 0 ;
-1 x12 -1 x13 +1 x77 >= -1 ;
+1 x12 -1 x78 >= 0 ;
+1 x14 -1 x78 >= 0 ;
-1 x12 -1 x14 +1 x78 >= -1 ;
+1 x13 -1 x79 >= 0 ;
+1 x15 -1 x79 >= 0 ;
-1 x13 -1 x15 +1 x79 >= -1 ;
+1 x13 -1 x80 >= 0 ;
+1 x16 -1 x80 >= 0 ;
-1 x13 -1 x16 +1 x80 >= -1 ;
+1 x14 -1 x81 >= 0 ;
+1 x15 -1 x81 >= 0 ;
-1 x14 -1 x15 +1 x81 >= -1 ;
+1 x14 -1 x82 >= 0 ;
+1 x16 -1 x82 >= 0 ;
-1 x14 -1 x16 +1 x82 >= -1 ;
+1 x15 -1 x83 >= 0 ;
+1 x17 -1 x83 >= 0 ;
-1 x15 -1 x17 +1 x83 >= -1 ;
+1 x15 -1 x84 >= 0 ;
+1 x18 -1 x84 >= 0 ;
-1 x15 -1 x18 +1 x84 >= -1 ;
+1 x16 -1 x85 >= 0 ;
+1 x17 -1 x85 >= 0 ;
-1 x16 -1 x17 +1 x85 >= -1 ;
+1 x16 -1 x86 >= 0 ;
+1 x18 -1 x86 >= 0 ;
-1 x16 -1 x18 +1 x86 >= -1 ;
+1 x17 -1 x87 >= 0 ;
+1 x1 -1 x87 >= 0 ;
-1 x17 -1 x1 +1 x87 >= -1 ;
+1 x17 -1 x88 >= 0 ;
+1 x2 -1 x88 >= 0 ;
-1 x17 -1 x2 +1 x88 >= -1 ;
+1 x18 -1 x89 >= 0 ;
+1 x1 -1 x89 >= 0 ;
-1 x18 -1 x1 +1 x89 >= -1 ;
+1 x18 -1 x90 >= 0 ;
+1 x2 -1 x90 >= 0 ;
-1 x18 -1 x2 +1 x90 >= -1 ;
+1 x1 -1 x91 >= 0 ;
+1 x5 -1 x91 >= 0 ;
-1 x1 -1 x5 +1 x91 >= -1 ;
+1 x1 -1 x92 >= 0 ;
+1 x6 -1 x92 >= 0 ;
-1 x1 -1 x6 +1 x92 >= -1 ;
+1 x2 -1 x93 >= 0 ;
+1 x5 -1 x93 >= 0 ;
-1 x2 -1 x5 +1 x93 >= -1 ;
+1 x2 -1 x94 >= 0 ;
+1 x6 -1 x94 >= 0 ;
-1 x2 -1 x6 +1 x94 >= -1 ;
+1 x3 -1 x95 >= 0 ;
+1 x7 -1 x95 >= 0 ;
-1 x3 -1 x7 +1 x95 >= -1 ;
+1 x3 -1 x96 >= 0 ;
+1 x8 -1 x96 >= 0 ;
-1 x3 -1 x8 +1 x96 >= -1 ;
+1 x4 -1 x97 >= 0 ;
+1 x7 -1 x97 >= 0 ;
-1 x4 -1 x7 +1 x97 >= -1 ;
+1 x4 -1 x98 >= 0 ;
+1 x8 -1 x98 >= 0 ;
-1 x4 -1 x8 +1 x98 >= -1 ;
+1 x5 -1 x99 >= 0 ;
+1 x9 -1 x99 >= 0 ;
-1 x5 -1 x9 +1 x99 >= -1 ;
+1 x5 -1 x100 >= 0 ;
+1 x10 -1 x100 >= 0 ;
-1 x5 -1 x10 +1 x100 >= -1 ;
+1 x6 -1 x101 >= 0 ;
+1 x9 -1 x101 >= 0 ;
-1 x6 -1 x9 +1 x101 >= -1 ;
+1 x6 -1 x102 >= 0 ;
+1 x10 -1 x102 >= 0 ;
-1 x6 -1 x10 +1 x102 >= -1 ;
+1 x7 -1 x103 >= 0 ;
+1 x11 -1 x103 >= 0 ;
-1 x7 -1 x11 +1 x103 >= -1 ;
+1 x7 -1 x104 >= 0 ;
+1 x12 -1 x104 >= 0 ;
-1 x7 -1 x12 +1 x104 >= -1 ;
+1 x8 -1 x105 >= 0 ;
+1 x11 -1 x105 >= 0 ;
-1 x8 -1 x11 +1 x105 >= -1 ;
+1 x8 -1 x106 >= 0 ;
+1 x12 -1 x106 >= 0 ;
-1 x8 -1 x12 +1 x106 >= -1 ;
+1 x9 -1 x107 >= 0 ;
+1 x13 -1 x107 >= 0 ;
-1 x9 -1 x13 +1 x107 >= -1 ;
+1 x9 -1 x108 >= 0 ;
+1 x14 -1 x108 >= 0 ;
-1 x9 -1 x14 +1 x108 >= -1 ;
+1 x10 -1 x109 >= 0 ;
+1 x13 -1 x109 >= 0 ;
-1 x10 -1 x13 +1 x109 >= -1 ;
+1 x10 -1 x110 >= 0 ;
+1 x14 -1 x110 >= 0 ;
-1 x10 -1 x14 +1 x110 >= -1 ;
+1 x11 -1 x111 >= 0 ;
+1 x15 -1 x111 >= 0 ;
-1 x11 -1 x15 +1 x111 >= -1 ;
+1 x11 -1 x112 >= 0 ;
+1 x16 -1 x112 >= 0 ;
-1 x11 -1 x16 +1 x112 >= -1 ;
+1 x12 -1 x113 >= 0 ;
+1 x15 -1 x113 >= 0 ;
-1 x12 -1 x15 +1 x113 >= -1 ;
+1 x12 -1 x114 >= 0 ;
+1 x16 -1 x114 >= 0 ;
-1 x12 -1 x16 +1 x114 >= -1 ;
+1 x13 -1 x115 >= 0 ;
+1 x17 -1 x115 >= 0 ;
-1 x13 -1 x17 +1 x115 >= -1 ;
+1 x13 -1 x116 >= 0 ;
+1 x18 -1 x116 >= 0 ;
-1 x13 -1 x18 +1 x116 >= -1 ;
+1 x14 -1 x117 >= 0 ;
+1 x17 -1 x117 >= 0 ;
-1 x14 -1 x17 +1 x117 >= -1 ;
+1 x14 -1 x118 >= 0 ;
+1 x18 -1 x118 >= 0 ;
-1 x14 -1 x18 +1 x118 >= -1 ;
+1 x15 -1 x119 >= 0 ;
+1 x1 -1 x119 >= 0 ;
-1 x15 -1 x1 +1 x119 >= -1 ;
+1 x15 -1 x120 >= 0 ;
+1 x2 -1 x120 >= 0 ;
-1 x15 -1 x2 +1 x120 >= -1 ;
+1 x16 -1 x121 >= 0 ;
+1 x1 -1 x121 >= 0 ;
-1 x16 -1 x1 +1 x121 >= -1 ;
+1 x16 -1 x122 >= 0 ;
+1 x2 -1 x122 >= 0 ;
-1 x16 -1 x2 +1 x122 >= -1 ;
+1 x17 -1 x123 >= 0 ;
+1 x3 -1 x123 >= 0 ;
-1 x17 -1 x3 +1 x123 >= -1 ;
+1 x17 -1 x124 >= 0 ;
+1 x4 -1 x124 >= 0 ;
-1 x17 -1 x4 +1 x124 >= -1 ;
+1 x18 -1 x125 >= 0 ;
+1 x3 -1 x125 >= 0 ;
-1 x18 -1 x3 +1 x125 >= -1 ;
+1 x18 -1 x126 >= 0 ;
+1 x4 -1 x126 >= 0 ;
-1 x18 -1 x4 +1 x126 >= -1 ;
+1 x1 -1 x127 >= 0 ;
+1 x7 -1 x127 >= 0 ;
-1 x1 -1 x7 +1 x127 >= -1 ;
+1 x1 -1 x128 >= 0 ;
+1 x8 -1 x128 >= 0 ;
-1 x1 -1 x8 +1 x128 >= -1 ;
+1 x2 -1 x129 >= 0 ;
+1 x7 -1 x129 >= 0 ;
-1 x2 -1 x7 +1 x129 >= -1 ;
+1 x2 -1 x130 >= 0 ;
+1 x8 -1 x130 >= 0 ;
-1 x2 -1 x8 +1 x130 >= -1 ;
+1 x3 -1 x131 >= 0 ;
+1 x9 -1 x131 >= 0 ;
-1 x3 -1 x9 +1 x131 >= -1 ;
+1 x3 -1 x132 >= 0 ;
+1 x10 -1 x132 >= 0 ;
-1 x3 -1 x10 +1 x132 >= -1 ;
+1 x4 -1 x133 >= 0 ;
+1 x9 -1 x133 >= 0 ;
-1 x4 -1 x9 +1 x133 >= -1 ;
+1 x4 -1 x134 >= 0 ;
+1 x10 -1 x134 >= 0 ;
-1 x4 -1 x10 +1 x134 >= -1 ;
+1 x5 -1 x135 >= 0 ;
+1 x11 -1 x135 >= 0 ;
-1 x5 -1 x11 +1 x135 >= -1 ;
+1 x5 -1 x136 >= 0 ;
+1 x12 -1 x136 >= 0 ;
-1 x5 -1 x12 +1 x136 >= -1 ;
+1 x6 -1 x137 >= 0 ;
+1 x11 -1 x137 >= 0 ;
-1 x6 -1 x11 +1 x137 >= -1 ;
+1 x6 -1 x138 >= 0 ;
+1 x12 -1 x138 >= 0 ;
-1 x6 -1 x12 +1 x138 >= -1 ;
+1 x7 -1 x139 >= 0 ;
+1 x13 -1 x139 >= 0 ;
-1 x7 -1 x13 +1 x139 >= -1 ;
+1 x7 -1 x140 >= 0 ;
+1 x14 -1 x140 >= 0 ;
-1 x7 -1 x14 +1 x140 >= -1 ;
+1 x8 -1 x141 >= 0 ;
+1 x13 -1 x141 >= 0 ;
-1 x8 -1 x13 +1 x141 >= -1 ;
+1 x8 -1 x142 >= 0 ;
+1 x14 -1 x142 >= 0 ;
-1 x8 -1 x14 +1 x142 >= -1 ;
+1 x9 -1 x143 >= 0 ;
+1 x15 -1 x143 >= 0 ;
-1 x9 -1 x15 +1 x143 >= -1 ;
+1 x9 -1 x144 >= 0 ;
+1 x16 -1 x144 >= 0 ;
-1 x9 -1 x16 +1 x144 >= -1 ;
+1 x10 -1 x145 >= 0 ;
+1 x15 -1 x145 >= 0 ;
-1 x10 -1 x15 +1 x145 >= -1 ;
+1 x10 -1 x146 >= 0 ;
+1 x16 -1 x146 >= 0 ;
-1 x10 -1 x16 +1 x146 >= -1 ;
+1 x11 -1 x147 >= 0 ;
+1 x17 -1 x147 >= 0 ;
-1 x11 -1 x17 +1 x147 >= -1 ;
+1 x11 -1 x148 >= 0 ;
+1 x18 -1 x148 >= 0 ;
-1 x11 -1 x18 +1 x148 >= -1 ;
+1 x12 -1 x149 >= 0 ;
+1 x17 -1 x149 >= 0 ;
-1 x12 -1 x17 +1 x149 >= -1 ;
+1 x12 -1 x150 >= 0 ;
+1 x18 -1 x150 >= 0 ;
-1 x12 -1 x18 +1 x150 >= -1 ;
+1 x13 -1 x151 >= 0 ;
+1 x1 -1 x151 >= 0 ;
-1 x13 -1 x1 +1 x151 >= -1 ;
+1 x13 -1 x152 >= 0 ;
+1 x2 -1 x152 >= 0 ;
-1 x13 -1 x2 +1 x152 >= -1 ;
+1 x14 -1 x153 >= 0 ;
+1 x1 -1 x153 >= 0 ;
-1 x14 -1 x1 +1 x153 >= -1 ;
+1 x14 -1 x154 >= 0 ;
+1 x2 -1 x154 >= 0 ;
-1 x14 -1 x2 +1 x154 >= -1 ;
+1 x15 -1 x155 >= 0 ;
+1 x3 -1 x155 >= 0 ;
-1 x15 -1 x3 +1 x155 >= -1 ;
+1 x15 -1 x156 >= 0 ;
+1 x4 -1 x156 >= 0 ;
-1 x15 -1 x4 +1 x156 >= -1 ;
+1 x16 -1 x157 >= 0 ;
+1 x3 -1 x157 >= 0 ;
-1 x16 -1 x3 +1 x157 >= -1 ;
+1 x16 -1 x158 >= 0 ;
+1 x4 -1 x158 >= 0 ;
-1 x16 -1 x4 +1 x158 >= -1 ;
+1 x17 -1 x159 >= 0 ;
+1 x5 -1 x159 >= 0 ;
-1 x17 -1 x5 +1 x159 >= -1 ;
+1 x17 -1 x160 >= 0 ;
+1 x6 -1 x160 >= 0 ;
-1 x17 -1 x6 +1 x160 >= -1 ;
+1 x18 -1 x161 >= 0 ;
+1 x5 -1 x161 >= 0 ;
-1 x18 -1 x5 +1 x161 >= -1 ;
+1 x18 -1 x162 >= 0 ;
+1 x6 -1 x162 >= 0 ;
-1 x18 -1 x6 +1 x162 >= -1 ;
+1 x1 -1 x163 >= 0 ;
+1 x9 -1 x163 >= 0 ;
-1 x1 -1 x9 +1 x163 >= -1 ;
+1 x1 -1 x164 >= 0 ;
+1 x10 -1 x164 >= 0 ;
-1 x1 -1 x10 +1 x164 >= -1 ;
+1 x2 -1 x165 >= 0 ;
+1 x9 -1 x165 >= 0 ;
-1 x2 -1 x9 +1 x165 >= -1 ;
+1 x2 -1 x166 >= 0 ;
+1 x10 -1 x166 >= 0 ;
-1 x2 -1 x10 +1 x166 >= -1 ;
+1 x3 -1 x167 >= 0 ;
+1 x11 -1 x167 >= 0 ;
-1 x3 -1 x11 +1 x167 >= -1 ;
+1 x3 -1 x168 >= 0 ;
+1 x12 -1 x168 >= 0 ;
-1 x3 -1 x12 +1 x168 >= -1 ;
+1 x4 -1 x169 >= 0 ;
+1 x11 -1 x169 >= 0 ;
-1 x4 -1 x11 +1 x169 >= -1 ;
+1 x4 -1 x170 >= 0 ;
+1 x12 -1 x170 >= 0 ;
-1 x4 -1 x12 +1 x170 >= -1 ;
+1 x5 -1 x171 >= 0 ;
+1 x13 -1 x171 >= 0 ;
-1 x5 -1 x13 +1 x171 >= -1 ;
+1 x5 -1 x172 >= 0 ;
+1 x14 -1 x172 >= 0 ;
-1 x5 -1 x14 +1 x172 >= -1 ;
+1 x6 -1 x173 >= 0 ;
+1 x13 -1 x173 >= 0 ;
-1 x6 -1 x13 +1 x173 >= -1 ;
+1 x6 -1 x174 >= 0 ;
+1 x14 -1 x174 >= 0 ;
-1 x6 -1 x14 +1 x174 >= -1 ;
+1 x7 -1 x175 >= 0 ;
+1 x15 -1 x175 >= 0 ;
-1 x7 -1 x15 +1 x175 >= -1 ;
+1 x7 -1 x176 >= 0 ;
+1 x16 -1 x176 >= 0 ;
-1 x7 -1 x16 +1 x176 >= -1 ;
+1 x8 -1 x177 >= 0 ;
+1 x15 -1 x177 >= 0 ;
-1 x8 -1 x15 +1 x177 >= -1 ;
+1 x8 -1 x178 >= 0 ;
+1 x16 -1 x178 >= 0 ;
-1 x8 -1 x16 +1 x178 >= -1 ;
+1 x9 -1 x179 >= 0 ;
+1 x17 -1 x179 >= 0 ;
-1 x9 -1 x17 +1 x179 >= -1 ;
+1 x9 -1 x180 >= 0 ;
+1 x18 -1 x180 >= 0 ;
-1 x9 -1 x18 +1 x180 >= -1 ;
+1 x10 -1 x181 >= 0 ;
+1 x17 -1 x181 >= 0 ;
-1 x10 -1 x17 +1 x181 >= -1 ;
+1 x10 -1 x182 >= 0 ;
+1 x18 -1 x182 >= 0 ;
-1 x10 -1 x18 +1 x182 >= -1 ;
+1 x11 -1 x183 >= 0 ;
+1 x1 -1 x183 >= 0 ;
-1 x11 -1 x1 +1 x183 >= -1 ;
+1 x11 -1 x184 >= 0 ;
+1 x2 -1 x184 >= 0 ;
-1 x11 -1 x2 +1 x184 >= -1 ;
+1 x12 -1 x185 >= 0 ;
+1 x1 -1 x185 >= 0 ;
-1 x12 -1 x1 +1 x185 >= -1 ;
+1 x12 -1 x186 >= 0 ;
+1 x2 -1 x186 >= 0 ;
-1 x12 -1 x2 +1 x186 >= -1 ;
+1 x13 -1 x187 >= 0 ;
+1 x3 -1 x187 >= 0 ;
-1 x13 -1 x3 +1 x187 >= -1 ;
+1 x13 -1 x188 >= 0 ;
+1 x4 -1 x188 >= 0 ;
-1 x13 -1 x4 +1 x188 >= -1 ;
+1 x14 -1 x189 >= 0 ;
+1 x3 -1 x189 >= 0 ;
-1 x14 -1 x3 +1 x189 >= -1 ;
+1 x14 -1 x190 >= 0 ;
+1 x4 -1 x190 >= 0 ;
-1 x14 -1 x4 +1 x190 >= -1 ;
+1 x15 -1 x191 >= 0 ;
+1 x5 -1 x191 >= 0 ;
-1 x15 -1 x5 +1 x191 >= -1 ;
+1 x15 -1 x192 >= 0 ;
+1 x6 -1 x192 >= 0 ;
-1 x15 -1 x6 +1 x192 >= -1 ;
+1 x16 -1 x193 >= 0 ;
+1 x5 -1 x193 >= 0 ;
-1 x16 -1 x5 +1 x193 >= -1 ;
+1 x16 -1 x194 >= 0 ;
+1 x6 -1 x194 >= 0 ;
-1 x16 -1 x6 +1 x194 >= -1 ;
+1 x17 -1 x195 >= 0 ;
+1 x7 -1 x195 >= 0 ;
-1 x17 -1 x7 +1 x195 >= -1 ;
+1 x17 -1 x196 >= 0 ;
+1 x8 -1 x196 >= 0 ;
-1 x17 -1 x8 +1 x196 >= -1 ;
+1 x18 -1 x197 >= 0 ;
+1 x7 -1 x197 >= 0 ;
-1 x18 -1 x7 +1 x197 >= -1 ;
+1 x18 -1 x198 >= 0 ;
+1 x8 -1 x198 >= 0 ;
-1 x18 -1 x8 +1 x198 >= -1 ;
+1 x19 -1 x199 >= 0 ;
+1 x21 -1 x199 >= 0 ;
-1 x19 -1 x21 +1 x199 >= -1 ;
+1 x19 -1 x200 >= 0 ;
+1 x22 -1 x200 >= 0 ;
-1 x19 -1 x22 +1 x200 >= -1 ;
+1 x20 -1 x201 >= 0 ;
+1 x21 -1 x201 >= 0 ;
-1 x20 -1 x21 +1 x201 >= -1 ;
+1 x20 -1 x202 >= 0 ;
+1 x22 -1 x202 >= 0 ;
-1 x20 -1 x22 +1 x202 >= -1 ;
+1 x21 -1 x203 >= 0 ;
+1 x23 -1 x203 >= 0 ;
-1 x21 -1 x23 +1 x203 >= -1 ;
+1 x21 -1 x204 >= 0 ;
+1 x24 -1 x204 >= 0 ;
-1 x21 -1 x24 +1 x204 >= -1 ;
+1 x22 -1 x205 >= 0 ;
+1 x23 -1 x205 >= 0 ;
-1 x22 -1 x23 +1 x205 >= -1 ;
+1 x22 -1 x206 >= 0 ;
+1 x24 -1 x206 >= 0 ;
-1 x22 -1 x24 +1 x206 >= -1 ;
+1 x23 -1 x207 >= 0 ;
+1 x25 -1 x207 >= 0 ;
-1 x23 -1 x25 +1 x207 >= -1 ;
+1 x23 -1 x208 >= 0 ;
+1 x26 -1 x208 >= 0 ;
-1 x23 -1 x26 +1 x208 >= -1 ;
+1 x24 -1 x209 >= 0 ;
+1 x25 -1 x209 >= 0 ;
-1 x24 -1 x25 +1 x209 >= -1 ;
+1 x24 -1 x210 >= 0 ;
+1 x26 -1 x210 >= 0 ;
-1 x24 -1 x26 +1 x210 >= -1 ;
+1 x25 -1 x211 >= 0 ;
+1 x27 -1 x211 >= 0 ;
-1 x25 -1 x27 +1 x211 >= -1 ;
+1 x25 -1 x212 >= 0 ;
+1 x28 -1 x212 >= 0 ;
-1 x25 -1 x28 +1 x212 >= -1 ;
+1 x26 -1 x213 >= 0 ;
+1 x27 -1 x213 >= 0 ;
-1 x26 -1 x27 +1 x213 >= -1 ;
+1 x26 -1 x214 >= 0 ;
+1 x28 -1 x214 >= 0 ;
-1 x26 -1 x28 +1 x214 >= -1 ;
+1 x27 -1 x215 >= 0 ;
+1 x29 -1 x215 >= 0 ;
-1 x27 -1 x29 +1 x215 >= -1 ;
+1 x27 -1 x216 >= 0 ;
+1 x30 -1 x216 >= 0 ;
-1 x27 -1 x30 +1 x216 >= -1 ;
+1 x28 -1 x217 >= 0 ;
+1 x29 -1 x217 >= 0 ;
-1 x28 -1 x29 +1 x217 >= -1 ;
+1 x28 -1 x218 >= 0 ;
+1 x30 -1 x218 >= 0 ;
-1 x28 -1 x30 +1 x218 >= -1 ;
+1 x29 -1 x219 >= 0 ;
+1 x31 -1 x219 >= 0 ;
-1 x29 -1 x31 +1 x219 >= -1 ;
+1 x29 -1 x220 >= 0 ;
+1 x32 -1 x220 >= 0 ;
-1 x29 -1 x32 +1 x220 >= -1 ;
+1 x30 -1 x221 >= 0 ;
+1 x31 -1 x221 >= 0 ;
-1 x30 -1 x31 +1 x221 >= -1 ;
+1 x30 -1 x222 >= 0 ;
+1 x32 -1 x222 >= 0 ;
-1 x30 -1 x32 +1 x222 >= -1 ;
+1 x31 -1 x223 >= 0 ;
+1 x33 -1 x223 >= 0 ;
-1 x31 -1 x33 +1 x223 >= -1 ;
+1 x31 -1 x224 >= 0 ;
+1 x34 -1 x224 >= 0 ;
-1 x31 -1 x34 +1 x224 >= -1 ;
+1 x32 -1 x225 >= 0 ;
+1 x33 -1 x225 >= 0 ;
-1 x32 -1 x33 +1 x225 >= -1 ;
+1 x32 -1 x226 >= 0 ;
+1 x34 -1 x226 >= 0 ;
-1 x32 -1 x34 +1 x226 >= -1 ;
+1 x33 -1 x227 >= 0 ;
+1 x35 -1 x227 >= 0 ;
-1 x33 -1 x35 +1 x227 >= -1 ;
+1 x33 -1 x228 >= 0 ;
+1 x36 -1 x228 >= 0 ;
-1 x33 -1 x36 +1 x228 >= -1 ;
+1 x34 -1 x229 >= 0 ;
+1 x35 -1 x229 >= 0 ;
-1 x34 -1 x35 +1 x229 >= -1 ;
+1 x34 -1 x230 >= 0 ;
+1 x36 -1 x230 >= 0 ;
-1 x34 -1 x36 +1 x230 >= -1 ;
+1 x35 -1 x231 >= 0 ;
+1 x19 -1 x231 >= 0 ;
-1 x35 -1 x19 +1 x231 >= -1 ;
+1 x35 -1 x232 >= 0 ;
+1 x20 -1 x232 >= 0 ;
-1 x35 -1 x20 +1 x232 >= -1 ;
+1 x36 -1 x233 >= 0 ;
+1 x19 -1 x233 >= 0 ;
-1 x36 -1 x19 +1 x233 >= -1 ;
+1 x36 -1 x234 >= 0 ;
+1 x20 -1 x234 >= 0 ;
-1 x36 -1 x20 +1 x234 >= -1 ;
+1 x19 -1 x235 >= 0 ;
+1 x23 -1 x235 >= 0 ;
-1 x19 -1 x23 +1 x235 >= -1 ;
+1 x19 -1 x236 >= 0 ;
+1 x24 -1 x236 >= 0 ;
-1 x19 -1 x24 +1 x236 >= -1 ;
+1 x20 -1 x237 >= 0 ;
+1 x23 -1 x237 >= 0 ;
-1 x20 -1 x23 +1 x237 >= -1 ;
+1 x20 -1 x238 >= 0 ;
+1 x24 -1 x238 >= 0 ;
-1 x20 -1 x24 +1 x238 >= -1 ;
+1 x21 -1 x239 >= 0 ;
+1 x25 -1 x239 >= 0 ;
-1 x21 -1 x25 +1 x239 >= -1 ;
+1 x21 -1 x240 >= 0 ;
+1 x26 -1 x240 >= 0 ;
-1 x21 -1 x26 +1 x240 >= -1 ;
+1 x22 -1 x241 >= 0 ;
+1 x25 -1 x241 >= 0 ;
-1 x22 -1 x25 +1 x241 >= -1 ;
+1 x22 -1 x242 >= 0 ;
+1 x26 -1 x242 >= 0 ;
-1 x22 -1 x26 +1 x242 >= -1 ;
+1 x23 -1 x243 >= 0 ;
+1 x27 -1 x243 >= 0 ;
-1 x23 -1 x27 +1 x243 >= -1 ;
+1 x23 -1 x244 >= 0 ;
+1 x28 -1 x244 >= 0 ;
-1 x23 -1 x28 +1 x244 >= -1 ;
+1 x24 -1 x245 >= 0 ;
+1 x27 -1 x245 >= 0 ;
-1 x24 -1 x27 +1 x245 >= -1 ;
+1 x24 -1 x246 >= 0 ;
+1 x28 -1 x246 >= 0 ;
-1 x24 -1 x28 +1 x246 >= -1 ;
+1 x25 -1 x247 >= 0 ;
+1 x29 -1 x247 >= 0 ;
-1 x25 -1 x29 +1 x247 >= -1 ;
+1 x25 -1 x248 >= 0 ;
+1 x30 -1 x248 >= 0 ;
-1 x25 -1 x30 +1 x248 >= -1 ;
+1 x26 -1 x249 >= 0 ;
+1 x29 -1 x249 >= 0 ;
-1 x26 -1 x29 +1 x249 >= -1 ;
+1 x26 -1 x250 >= 0 ;
+1 x30 -1 x250 >= 0 ;
-1 x26 -1 x30 +1 x250 >= -1 ;
+1 x27 -1 x251 >= 0 ;
+1 x31 -1 x251 >= 0 ;
-1 x27 -1 x31 +1 x251 >= -1 ;
+1 x27 -1 x252 >= 0 ;
+1 x32 -1 x252 >= 0 ;
-1 x27 -1 x32 +1 x252 >= -1 ;
+1 x28 -1 x253 >= 0 ;
+1 x31 -1 x253 >= 0 ;
-1 x28 -1 x31 +1 x253 >= -1 ;
+1 x28 -1 x254 >= 0 ;
+1 x32 -1 x254 >= 0 ;
-1 x28 -1 x32 +1 x254 >= -1 ;
+1 x29 -1 x255 >= 0 ;
+1 x33 -1 x255 >= 0 ;
-1 x29 -1 x33 +1 x255 >= -1 ;
+1 x29 -1 x256 >= 0 ;
+1 x34 -1 x256 >= 0 ;
-1 x29 -1 x34 +1 x256 >= -1 ;
+1 x30 -1 x257 >= 0 ;
+1 x33 -1 x257 >= 0 ;
-1 x30 -1 x33 +1 x257 >= -1 ;
+1 x30 -1 x258 >= 0 ;
+1 x34 -1 x258 >= 0 ;
-1 x30 -1 x34 +1 x258 >= -1 ;
+1 x31 -1 x259 >= 0 ;
+1 x35 -1 x259 >= 0 ;
-1 x31 -1 x35 +1 x259 >= -1 ;
+1 x31 -1 x260 >= 0 ;
+1 x36 -1 x260 >= 0 ;
-1 x31 -1 x36 +1 x260 >= -1 ;
+1 x32 -1 x261 >= 0 ;
+1 x35 -1 x261 >= 0 ;
-1 x32 -1 x35 +1 x261 >= -1 ;
+1 x32 -1 x262 >= 0 ;
+1 x36 -1 x262 >= 0 ;
-1 x32 -1 x36 +1 x262 >= -1 ;
+1 x33 -1 x263 >= 0 ;
+1 x19 -1 x263 >= 0 ;
-1 x33 -1 x19 +1 x263 >= -1 ;
+1 x33 -1 x264 >= 0 ;
+1 x20 -1 x264 >= 0 ;
-1 x33 -1 x20 +1 x264 >= -1 ;
+1 x34 -1 x265 >= 0 ;
+1 x19 -1 x265 >= 0 ;
-1 x34 -1 x19 +1 x265 >= -1 ;
+1 x34 -1 x266 >= 0 ;
+1 x20 -1 x266 >= 0 ;
-1 x34 -1 x20 +1 x266 >= -1 ;
+1 x35 -1 x267 >= 0 ;
+1 x21 -1 x267 >= 0 ;
-1 x35 -1 x21 +1 x267 >= -1 ;
+1 x35 -1 x268 >= 0 ;
+1 x22 -1 x268 >= 0 ;
-1 x35 -1 x22 +1 x268 >= -1 ;
+1 x36 -1 x269 >= 0 ;
+1 x21 -1 x269 >= 0 ;
-1 x36 -1 x21 +1 x269 >= -1 ;
+1 x36 -1 x270 >= 0 ;
+1 x22 -1 x270 >= 0 ;
-1 x36 -1 x22 +1 x270 >= -1 ;
+1 x19 -1 x271 >= 0 ;
+1 x25 -1 x271 >= 0 ;
-1 x19 -1 x25 +1 x271 >= -1 ;
+1 x19 -1 x272 >= 0 ;
+1 x26 -1 x272 >= 0 ;
-1 x19 -1 x26 +1 x272 >= -1 ;
+1 x20 -1 x273 >= 0 ;
+1 x25 -1 x273 >= 0 ;
-1 x20 -1 x25 +1 x273 >= -1 ;
+1 x20 -1 x274 >= 0 ;
+1 x26 -1 x274 >= 0 ;
-1 x20 -1 x26 +1 x274 >= -1 ;
+1 x21 -1 x275 >= 0 ;
+1 x27 -1 x275 >= 0 ;
-1 x21 -1 x27 +1 x275 >= -1 ;
+1 x21 -1 x276 >= 0 ;
+1 x28 -1 x276 >= 0 ;
-1 x21 -1 x28 +1 x276 >= -1 ;
+1 x22 -1 x277 >= 0 ;
+1 x27 -1 x277 >= 0 ;
-1 x22 -1 x27 +1 x277 >= -1 ;
+1 x22 -1 x278 >= 0 ;
+1 x28 -1 x278 >= 0 ;
-1 x22 -1 x28 +1 x278 >= -1 ;
+1 x23 -1 x279 >= 0 ;
+1 x29 -1 x279 >= 0 ;
-1 x23 -1 x29 +1 x279 >= -1 ;
+1 x23 -1 x280 >= 0 ;
+1 x30 -1 x280 >= 0 ;
-1 x23 -1 x30 +1 x280 >= -1 ;
+1 x24 -1 x281 >= 0 ;
+1 x29 -1 x281 >= 0 ;
-1 x24 -1 x29 +1 x281 >= -1 ;
+1 x24 -1 x282 >= 0 ;
+1 x30 -1 x282 >= 0 ;
-1 x24 -1 x30 +1 x282 >= -1 ;
+1 x25 -1 x283 >= 0 ;
+1 x31 -1 x283 >= 0 ;
-1 x25 -1 x31 +1 x283 >= -1 ;
+1 x25 -1 x284 >= 0 ;
+1 x32 -1 x284 >= 0 ;
-1 x25 -1 x32 +1 x284 >= -1 ;
+1 x26 -1 x285 >= 0 ;
+1 x31 -1 x285 >= 0 ;
-1 x26 -1 x31 +1 x285 >= -1 ;
+1 x26 -1 x286 >= 0 ;
+1 x32 -1 x286 >= 0 ;
-1 x26 -1 x32 +1 x286 >= -1 ;
+1 x27 -1 x287 >= 0 ;
+1 x33 -1 x287 >= 0 ;
-1 x27 -1 x33 +1 x287 >= -1 ;
+1 x27 -1 x288 >= 0 ;
+1 x34 -1 x288 >= 0 ;
-1 x27 -1 x34 +1 x288 >= -1 ;
+1 x28 -1 x289 >= 0 ;
+1 x33 -1 x289 >= 0 ;
-1 x28 -1 x33 +1 x289 >= -1 ;
+1 x28 -1 x290 >= 0 ;
+1 x34 -1 x290 >= 0 ;
-1 x28 -1 x34 +1 x290 >= -1 ;
+1 x29 -1 x291 >= 0 ;
+1 x35 -1 x291 >= 0 ;
-1 x29 -1 x35 +1 x291 >= -1 ;
+1 x29 -1 x292 >= 0 ;
+1 x36 -1 x292 >= 0 ;
-1 x29 -1 x36 +1 x292 >= -1 ;
+1 x30 -1 x293 >= 0 ;
+1 x35 -1 x293 >= 0 ;
-1 x30 -1 x35 +1 x293 >= -1 ;
+1 x30 -1 x294 >= 0 ;
+1 x36 -1 x294 >= 0 ;
-1 x30 -1 x36 +1 x294 >= -1 ;
+1 x31 -1 x295 >= 0 ;
+1 x19 -1 x295 >= 0 ;
-1 x31 -1 x19 +1 x295 >= -1 ;
+1 x31 -1 x296 >= 0 ;
+1 x20 -1 x296 >= 0 ;
-1 x31 -1 x20 +1 x296 >= -1 ;
+1 x32 -1 x297 >= 0 ;
+1 x19 -1 x297 >= 0 ;
-1 x32 -1 x19 +1 x297 >= -1 ;
+1 x32 -1 x298 >= 0 ;
+1 x20 -1 x298 >= 0 ;
-1 x32 -1 x20 +1 x298 >= -1 ;
+1 x33 -1 x299 >= 0 ;
+1 x21 -1 x299 >= 0 ;
-1 x33 -1 x21 +1 x299 >= -1 ;
+1 x33 -1 x300 >= 0 ;
+1 x22 -1 x300 >= 0 ;
-1 x33 -1 x22 +1 x300 >= -1 ;
+1 x34 -1 x301 >= 0 ;
+1 x21 -1 x301 >= 0 ;
-1 x34 -1 x21 +1 x301 >= -1 ;
+1 x34 -1 x302 >= 0 ;
+1 x22 -1 x302 >= 0 ;
-1 x34 -1 x22 +1 x302 >= -1 ;
+1 x35 -1 x303 >= 0 ;
+1 x23 -1 x303 >= 0 ;
-1 x35 -1 x23 +1 x303 >= -1 ;
+1 x35 -1 x304 >= 0 ;
+1 x24 -1 x304 >= 0 ;
-1 x35 -1 x24 +1 x304 >= -1 ;
+1 x36 -1 x305 >= 0 ;
+1 x23 -1 x305 >= 0 ;
-1 x36 -1 x23 +1 x305 >= -1 ;
+1 x36 -1 x306 >= 0 ;
+1 x24 -1 x306 >= 0 ;
-1 x36 -1 x24 +1 x306 >= -1 ;
+1 x19 -1 x307 >= 0 ;
+1 x27 -1 x307 >= 0 ;
-1 x19 -1 x27 +1 x307 >= -1 ;
+1 x19 -1 x308 >= 0 ;
+1 x28 -1 x308 >= 0 ;
-1 x19 -1 x28 +1 x308 >= -1 ;
+1 x20 -1 x309 >= 0 ;
+1 x27 -1 x309 >= 0 ;
-1 x20 -1 x27 +1 x309 >= -1 ;
+1 x20 -1 x310 >= 0 ;
+1 x28 -1 x310 >= 0 ;
-1 x20 -1 x28 +1 x310 >= -1 ;
+1 x21 -1 x311 >= 0 ;
+1 x29 -1 x311 >= 0 ;
-1 x21 -1 x29 +1 x311 >= -1 ;
+1 x21 -1 x312 >= 0 ;
+1 x30 -1 x312 >= 0 ;
-1 x21 -1 x30 +1 x312 >= -1 ;
+1 x22 -1 x313 >= 0 ;
+1 x29 -1 x313 >= 0 ;
-1 x22 -1 x29 +1 x313 >= -1 ;
+1 x22 -1 x314 >= 0 ;
+1 x30 -1 x314 >= 0 ;
-1 x22 -1 x30 +1 x314 >= -1 ;
+1 x23 -1 x315 >= 0 ;
+1 x31 -1 x315 >= 0 ;
-1 x23 -1 x31 +1 x315 >= -1 ;
+1 x23 -1 x316 >= 0 ;
+1 x32 -1 x316 >= 0 ;
-1 x23 -1 x32 +1 x316 >= -1 ;
+1 x24 -1 x317 >= 0 ;
+1 x31 -1 x317 >= 0 ;
-1 x24 -1 x31 +1 x317 >= -1 ;
+1 x24 -1 x318 >= 0 ;
+1 x32 -1 x318 >= 0 ;
-1 x24 -1 x32 +1 x318 >= -1 ;
+1 x25 -1 x319 >= 0 ;
+1 x33 -1 x319 >= 0 ;
-1 x25 -1 x33 +1 x319 >= -1 ;
+1 x25 -1 x320 >= 0 ;
+1 x34 -1 x320 >= 0 ;
-1 x25 -1 x34 +1 x320 >= -1 ;
+1 x26 -1 x321 >= 0 ;
+1 x33 -1 x321 >= 0 ;
-1 x26 -1 x33 +1 x321 >= -1 ;
+1 x26 -1 x322 >= 0 ;
+1 x34 -1 x322 >= 0 ;
-1 x26 -1 x34 +1 x322 >= -1 ;
+1 x27 -1 x323 >= 0 ;
+1 x35 -1 x323 >= 0 ;
-1 x27 -1 x35 +1 x323 >= -1 ;
+1 x27 -1 x324 >= 0 ;
+1 x36 -1 x324 >= 0 ;
-1 x27 -1 x36 +1 x324 >= -1 ;
+1 x28 -1 x325 >= 0 ;
+1 x35 -1 x325 >= 0 ;
-1 x28 -1 x35 +1 x325 >= -1 ;
+1 x28 -1 x326 >= 0 ;
+1 x36 -1 x326 >= 0 ;
-1 x28 -1 x36 +1 x326 >= -1 ;
+1 x29 -1 x327 >= 0 ;
+1 x19 -1 x327 >= 0 ;
-1 x29 -1 x19 +1 x327 >= -1 ;
+1 x29 -1 x328 >= 0 ;
+1 x20 -1 x328 >= 0 ;
-1 x29 -1 x20 +1 x328 >= -1 ;
+1 x30 -1 x329 >= 0 ;
+1 x19 -1 x329 >= 0 ;
-1 x30 -1 x19 +1 x329 >= -1 ;
+1 x30 -1 x330 >= 0 ;
+1 x20 -1 x330 >= 0 ;
-1 x30 -1 x20 +1 x330 >= -1 ;
+1 x31 -1 x331 >= 0 ;
+1 x21 -1 x331 >= 0 ;
-1 x31 -1 x21 +1 x331 >= -1 ;
+1 x31 -1 x332 >= 0 ;
+1 x22 -1 x332 >= 0 ;
-1 x31 -1 x22 +1 x332 >= -1 ;
+1 x32 -1 x333 >= 0 ;
+1 x21 -1 x333 >= 0 ;
-1 x32 -1 x21 +1 x333 >= -1 ;
+1 x32 -1 x334 >= 0 ;
+1 x22 -1 x334 >= 0 ;
-1 x32 -1 x22 +1 x334 >= -1 ;
+1 x33 -1 x335 >= 0 ;
+1 x23 -1 x335 >= 0 ;
-1 x33 -1 x23 +1 x335 >= -1 ;
+1 x33 -1 x336 >= 0 ;
+1 x24 -1 x336 >= 0 ;
-1 x33 -1 x24 +1 x336 >= -1 ;
+1 x34 -1 x337 >= 0 ;
+1 x23 -1 x337 >= 0 ;
-1 x34 -1 x23 +1 x337 >= -1 ;
+1 x34 -1 x338 >= 0 ;
+1 x24 -1 x338 >= 0 ;
-1 x34 -1 x24 +1 x338 >= -1 ;
+1 x35 -1 x339 >= 0 ;
+1 x25 -1 x339 >= 0 ;
-1 x35 -1 x25 +1 x339 >= -1 ;
+1 x35 -1 x340 >= 0 ;
+1 x26 -1 x340 >= 0 ;
-1 x35 -1 x26 +1 x340 >= -1 ;
+1 x36 -1 x341 >= 0 ;
+1 x25 -1 x341 >= 0 ;
-1 x36 -1 x25 +1 x341 >= -1 ;
+1 x36 -1 x342 >= 0 ;
+1 x26 -1 x342 >= 0 ;
-1 x36 -1 x26 +1 x342 >= -1 ;
+1 x55 +2 x56 +2 x57 +4 x58 +1 x59 +2 x60 +2 x61 +4 x62 +1 x63 +2 x64 +2 x65 +4 x66 +1 x67 +2 x68 +2 x69 +4 x70 +1 x71 +2 x72 +2 x73 +4 x74 +1 x75 +2 x76 +2 x77 +4 x78 +1 x79 +2 x80 +2 x81 +4 x82 +1 x83 +2 x84 +2 x85 +4 x86 +1 x87 +2 x88 +2 x89 +4 x90 +1 x199 +2 x200 +2 x201 +4 x202 +1 x203 +2 x204 +2 x205 +4 x206 +1 x207 +2 x208 +2 x209 +4 x210 +1 x211 +2 x212 +2 x213 +4 x214 +1 x215 +2 x216 +2 x217 +4 x218 +1 x219 +2 x220 +2 x221 +4 x222 +1 x223 +2 x224 +2 x225 +4 x226 +1 x227 +2 x228 +2 x229 +4 x230 +1 x231 +2 x232 +2 x233 +4 x234 = 36 ;
+1 x91 +2 x92 +2 x93 +4 x94 +1 x95 +2 x96 +2 x97 +4 x98 +1 x99 +2 x100 +2 x101 +4 x102 +1 x103 +2 x104 +2 x105 +4 x106 +1 x107 +2 x108 +2 x109 +4 x110 +1 x111 +2 x112 +2 x113 +4 x114 +1 x115 +2 x116 +2 x117 +4 x118 +1 x119 +2 x120 +2 x121 +4 x122 +1 x123 +2 x124 +2 x125 +4 x126 +1 x235 +2 x236 +2 x237 +4 x238 +1 x239 +2 x240 +2 x241 +4 x242 +1 x243 +2 x244 +2 x245 +4 x246 +1 x247 +2 x248 +2 x249 +4 x250 +1 x251 +2 x252 +2 x253 +4 x254 +1 x255 +2 x256 +2 x257 +4 x258 +1 x259 +2 x260 +2 x261 +4 x262 +1 x263 +2 x264 +2 x265 +4 x266 +1 x267 +2 x268 +2 x269 +4 x270 = 36 ;
+1 x127 +2 x128 +2 x129 +4 x130 +1 x131 +2 x132 +2 x133 +4 x134 +1 x135 +2 x136 +2 x137 +4 x138 +1 x139 +2 x140 +2 x141 +4 x142 +1 x143 +2 x144 +2 x145 +4 x146 +1 x147 +2 x148 +2 x149 +4 x150 +1 x151 +2 x152 +2 x153 +4 x154 +1 x155 +2 x156 +2 x157 +4 x158 +1 x159 +2 x160 +2 x161 +4 x162 +1 x271 +2 x272 +2 x273 +4 x274 +1 x275 +2 x276 +2 x277 +4 x278 +1 x279 +2 x280 +2 x281 +4 x282 +1 x283 +2 x284 +2 x285 +4 x286 +1 x287 +2 x288 +2 x289 +4 x290 +1 x291 +2 x292 +2 x293 +4 x294 +1 x295 +2 x296 +2 x297 +4 x298 +1 x299 +2 x300 +2 x301 +4 x302 +1 x303 +2 x304 +2 x305 +4 x306 = 36 ;
+1 x163 +2 x164 +2 x165 +4 x166 +1 x167 +2 x168 +2 x169 +4 x170 +1 x171 +2 x172 +2 x173 +4 x174 +1 x175 +2 x176 +2 x177 +4 x178 +1 x179 +2 x180 +2 x181 +4 x182 +1 x183 +2 x184 +2 x185 +4 x186 +1 x187 +2 x188 +2 x189 +4 x190 +1 x191 +2 x192 +2 x193 +4 x194 +1 x195 +2 x196 +2 x197 +4 x198 +1 x307 +2 x308 +2 x309 +4 x310 +1 x311 +2 x312 +2 x313 +4 x314 +1 x315 +2 x316 +2 x317 +4 x318 +1 x319 +2 x320 +2 x321 +4 x322 +1 x323 +2 x324 +2 x325 +4 x326 +1 x327 +2 x328 +2 x329 +4 x330 +1 x331 +2 x332 +2 x333 +4 x334 +1 x335 +2 x336 +2 x337 +4 x338 +1 x339 +2 x340 +2 x341 +4 x342 = 36 ;
