* #variable= 930 #constraint= 2658 #equal= 18 intsize= 4
* intermediate entry = 3 - 2*(u + 2*v)
* auxiliaries: square XORs, then shifted bit products
+1 x1 +2 x2 +1 x11 +2 x12 +1 x21 +2 x22 = 4 ;
+1 x3 +2 x4 +1 x13 +2 x14 +1 x23 +2 x24 = 3 ;
+1 x5 +2 x6 +1 x15 +2 x16 +1 x25 +2 x26 = 6 ;
+1 x7 +2 x8 +1 x17 +2 x18 +1 x27 +2 x28 = 6 ;
+1 x9 +2 x10 +1 x19 +2 x20 +1 x29 +2 x30 = 3 ;
+1 x31 +2 x32 +1 x41 +2 x42 +1 x51 +2 x52 = 4 ;
+1 x33 +2 x34 +1 x43 +2 x44 +1 x53 +2 x54 = 6 ;
+1 x35 +2 x36 +1 x45 +2 x46 +1 x55 +2 x56 = 3 ;
+1 x37 +2 x38 +1 x47 +2 x48 +1 x57 +2 x58 = 3 ;
+1 x39 +2 x40 +1 x49 +2 x50 +1 x59 +2 x60 = 6 ;
+1 x1 +1 x2 -1 x61 >= 0 ;
-1 x1 -1 x2 -1 x61 >= -2 ;
+1 x1 -1 x2 +1 x61 >= 0 ;
-1 x1 +1 x2 +1 x61 >= 0 ;
+1 x3 +1 x4 -1 x62 >= 0 ;
-1 x3 -1 x4 -1 x62 >= -2 ;
+1 x3 -1 x4 +1 x62 >= 0 ;
-1 x3 +1 x4 +1 x62 >= 0 ;
+1 x5 +1 x6 -1 x63 >= 0 ;
-1 x5 -1 x6 -1 x63 >= -2 ;
+1 x5 -1 x6 +1 x63 >= 0 ;
-1 x5 +1 x6 +1 x63 >= 0 ;
+1 x7 +1 x8 -1 x64 >= 0 ;
-1 x7 -1 x8 -1 x64 >= -2 ;
+1 x7 -1 x8 +1 x64 >= 0 ;
-1 x7 +1 x8 +1 x64 >= 0 ;
+1 x9 +1 x10 -1 x65 >= 0 ;
-1 x9 -1 x10 -1 x65 >= -2 ;
+1 x9 -1 x10 +1 x65 >= 0 ;
-1 x9 +1 x10 +1 x65 >= 0 ;
+1 x11 +1 x12 -1 x66 >= 0 ;
-1 x11 -1 x12 -1 x66 >= -2 ;
+1 x11 -1 x12 +1 x66 >= 0 ;
-1 x11 +1 x12 +1 x66 >= 0 ;
+1 x13 +1 x14 -1 x67 >= 0 ;
-1 x13 -1 x14 -1 x67 >= -2 ;
+1 x13 -1 x14 +1 x67 >= 0 ;
-1 x13 +1 x14 +1 x67 >= 0 ;
+1 x15 +1 x16 -1 x68 >= 0 ;
-1 x15 -1 x16 -1 x68 >= -2 ;
+1 x15 -1 x16 +1 x68 >= 0 ;
-1 x15 +1 x16 +1 x68 >= 0 ;
+1 x17 +1 x18 -1 x69 >= 0 ;
-1 x17 -1 x18 -1 x69 >= -2 ;
+1 x17 -1 x18 +1 x69 >= 0 ;
-1 x17 +1 x18 +1 x69 >= 0 ;
+1 x19 +1 x20 -1 x70 >= 0 ;
-1 x19 -1 x20 -1 x70 >= -2 ;
+1 x19 -1 x20 +1 x70 >= 0 ;
-1 x19 +1 x20 +1 x70 >= 0 ;
+1 x21 +1 x22 -1 x71 >= 0 ;
-1 x21 -1 x22 -1 x71 >= -2 ;
+1 x21 -1 x22 +1 x71 >= 0 ;
-1 x21 +1 x22 +1 x71 >= 0 ;
+1 x23 +1 x24 -1 x72 >= 0 ;
-1 x23 -1 x24 -1 x72 >= -2 ;
+1 x23 -1 x24 +1 x72 >= 0 ;
-1 x23 +1 x24 +1 x72 >= 0 ;
+1 x25 +1 x26 -1 x73 >= 0 ;
-1 x25 -1 x26 -1 x73 >= -2 ;
+1 x25 -1 x26 +1 x73 >= 0 ;
-1 x25 +1 x26 +1 x73 >= 0 ;
+1 x27 +1 x28 -1 x74 >= 0 ;
-1 x27 -1 x28 -1 x74 >= -2 ;
+1 x27 -1 x28 +1 x74 >= 0 ;
-1 x27 +1 x28 +1 x74 >= 0 ;
+1 x29 +1 x30 -1 x75 >= 0 ;
-1 x29 -1 x30 -1 x75 >= -2 ;
+1 x29 -1 x30 +1 x75 >= 0 ;
-1 x29 +1 x30 +1 x75 >= 0 ;
+1 x31 +1 x32 -1 x76 >= 0 ;
-1 x31 -1 x32 -1 x76 >= -2 ;
+1 x31 -1 x32 +1 x76 >= 0 ;
-1 x31 +1 x32 +1 x76 >= 0 ;
+1 x33 +1 x34 -1 x77 >= 0 ;
-1 x33 -1 x34 -1 x77 >= -2 ;
+1 x33 -1 x34 +1 x77 >= 0 ;
-1 x33 +1 x34 +1 x77 >= 0 ;
+1 x35 +1 x36 -1 x78 >= 0 ;
-1 x35 -1 x36 -1 x78 >= -2 ;
+1 x35 -1 x36 +1 x78 >= 0 ;
-1 x35 +1 x36 +1 x78 >= 0 ;
+1 x37 +1 x38 -1 x79 >= 0 ;
-1 x37 -1 x38 -1 x79 >= -2 ;
+1 x37 -1 x38 +1 x79 >= 0 ;
-1 x37 +1 x38 +1 x79 >= 0 ;
+1 x39 +1 x40 -1 x80 >= 0 ;
-1 x39 -1 x40 -1 x80 >= -2 ;
+1 x39 -1 x40 +1 x80 >= 0 ;
-1 x39 +1 x40 +1 x80 >= 0 ;
+1 x41 +1 x42 -1 x81 >= 0 ;
-1 x41 -1 x42 -1 x81 >= -2 ;
+1 x41 -1 x42 +1 x81 >= 0 ;
-1 x41 +1 x42 +1 x81 >= 0 ;
+1 x43 +1 x44 -1 x82 >= 0 ;
-1 x43 -1 x44 -1 x82 >= -2 ;
+1 x43 -1 x44 +1 x82 >= 0 ;
-1 x43 +1 x44 +1 x82 >= 0 ;
+1 x45 +1 x46 -1 x83 >= 0 ;
-1 x45 -1 x46 -1 x83 >= -2 ;
+1 x45 -1 x46 +1 x83 >= 0 ;
-1 x45 +1 x46 +1 x83 >= 0 ;
+1 x47 +1 x48 -1 x84 >= 0 ;
-1 x47 -1 x48 -1 x84 >= -2 ;
+1 x47 -1 x48 +1 x84 >= 0 ;
-1 x47 +1 x48 +1 x84 >= 0 ;
+1 x49 +1 x50 -1 x85 >= 0 ;
-1 x49 -1 x50 -1 x85 >= -2 ;
+1 x49 -1 x50 +1 x85 >= 0 ;
-1 x49 +1 x50 +1 x85 >= 0 ;
+1 x51 +1 x52 -1 x86 >= 0 ;
-1 x51 -1 x52 -1 x86 >= -2 ;
+1 x51 -1 x52 +1 x86 >= 0 ;
-1 x51 +1 x52 +1 x86 >= 0 ;
+1 x53 +1 x54 -1 x87 >= 0 ;
-1 x53 -1 x54 -1 x87 >= -2 ;
+1 x53 -1 x54 +1 x87 >= 0 ;
-1 x53 +1 x54 +1 x87 >= 0 ;
+1 x55 +1 x56 -1 x88 >= 0 ;
-1 x55 -1 x56 -1 x88 >= -2 ;
+1 x55 -1 x56 +1 x88 >= 0 ;
-1 x55 +1 x56 +1 x88 >= 0 ;
+1 x57 +1 x58 -1 x89 >= 0 ;
-1 x57 -1 x58 -1 x89 >= -2 ;
+1 x57 -1 x58 +1 x89 >= 0 ;
-1 x57 +1 x58 +1 x89 >= 0 ;
+1 x59 +1 x60 -1 x90 >= 0 ;
-1 x59 -1 x60 -1 x90 >= -2 ;
+1 x59 -1 x60 +1 x90 >= 0 ;
-1 x59 +1 x60 +1 x90 >= 0 ;
+1 x61 +1 x62 +1 x63 +1 x64 +1 x65 +1 x66 +1 x67 +1 x68 +1 x69 +1 x70 +1 x71 +1 x72 +1 x73 +1 x74 +1 x75 +1 x76 +1 x77 +1 x78 +1 x79 +1 x80 +1 x81 +1 x82 +1 x83 +1 x84 +1 x85 +1 x86 +1 x87 +1 x88 +1 x89 +1 x90 = 23 ;
+1 x1 -1 x91 >= 0 ;
+1 x3 -1 x91 >= 0 ;
-1 x1 -1 x3 +1 x91 >= -1 ;
+1 x1 -1 x92 >= 0 ;
+1 x4 -1 x92 >= 0 ;
-1 x1 -1 x4 +1 x92 >= -1 ;
+1 x2 -1 x93 >= 0 ;
+1 x3 -1 x93 >= 0 ;
-1 x2 -1 x3 +1 x93 >= -1 ;
+1 x2 -1 x94 >= 0 ;
+1 x4 -1 x94 >= 0 ;
-1 x2 -1 x4 +1 x94 >= -1 ;
+1 x3 -1 x95 >= 0 ;
+1 x5 -1 x95 >= 0 ;
-1 x3 -1 x5 +1 x95 >= -1 ;
+1 x3 -1 x96 >= 0 ;
+1 x6 -1 x96 >= 0 ;
-1 x3 -1 x6 +1 x96 >= -1 ;
+1 x4 -1 x97 >= 0 ;
+1 x5 -1 x97 >= 0 ;
-1 x4 -1 x5 +1 x97 >= -1 ;
+1 x4 -1 x98 >= 0 ;
+1 x6 -1 x98 >= 0 ;
-1 x4 -1 x6 +1 x98 >= -1 ;
+1 x5 -1 x99 >= 0 ;
+1 x7 -1 x99 >= 0 ;
-1 x5 -1 x7 +1 x99 >= -1 ;
+1 x5 -1 x100 >= 0 ;
+1 x8 -1 x100 >= 0 ;
-1 x5 -1 x8 +1 x100 >= -1 ;
+1 x6 -1 x101 >= 0 ;
+1 x7 -1 x101 >= 0 ;
-1 x6 -1 x7 +1 x101 >= -1 ;
+1 x6 -1 x102 >= 0 ;
+1 x8 -1 x102 >= 0 ;
-1 x6 -1 x8 +1 x102 >= -1 ;
+1 x7 -1 x103 >= 0 ;
+1 x9 -1 x103 >= 0 ;
-1 x7 -1 x9 +1 x103 >= -1 ;
+1 x7 -1 x104 >= 0 ;
+1 x10 -1 x104 >= 0 ;
-1 x7 -1 x10 +1 x104 >= -1 ;
+1 x8 -1 x105 >= 0 ;
+1 x9 -1 x105 >= 0 ;
-1 x8 -1 x9 +1 x105 >= -1 ;
+1 x8 -1 x106 >= 0 ;
+1 x10 -1 x106 >= 0 ;
-1 x8 -1 x10 +1 x106 >= -1 ;
+1 x9 -1 x107 >= 0 ;
+1 x11 -1 x107 >= 0 ;
-1 x9 -1 x11 +1 x107 >= -1 ;
+1 x9 -1 x108 >= 0 ;
+1 x12 -1 x108 >= 0 ;
-1 x9 -1 x12 +1 x108 >= -1 ;
+1 x10 -1 x109 >= 0 ;
+1 x11 -1 x109 >= 0 ;
-1 x10 -1 x11 +1 x109 >= -1 ;
+1 x10 -1 x110 >= 0 ;
+1 x12 -1 x110 >= 0 ;
-1 x10 -1 x12 +1 x110 >= -1 ;
+1 x11 -1 x111 >= 0 ;
+1 x13 -1 x111 >= 0 ;
-1 x11 -1 x13 +1 x111 >= -1 ;
+1 x11 -1 x112 >= 0 ;
+1 x14 -1 x112 >= 0 ;
-1 x11 -1 x14 +1 x112 >= -1 ;
+1 x12 -1 x113 >= 0 ;
+1 x13 -1 x113 >= 0 ;
-1 x12 -1 x13 +1 x113 >= -1 ;
+1 x12 -1 x114 >= 0 ;
+1 x14 -1 x114 >= 0 ;
-1 x12 -1 x14 +1 x114 >= -1 ;
+1 x13 -1 x115 >= 0 ;
+1 x15 -1 x115 >= 0 ;
-1 x13 -1 x15 +1 x115 >= -1 ;
+1 x13 -1 x116 >= 0 ;
+1 x16 -1 x116 >= 0 ;
-1 x13 -1 x16 +1 x116 >= -1 ;
+1 x14 -1 x117 >= 0 ;
+1 x15 -1 x117 >= 0 ;
-1 x14 -1 x15 +1 x117 >= -1 ;
+1 x14 -1 x118 >= 0 ;
+1 x16 -1 x118 >= 0 ;
-1 x14 -1 x16 +1 x118 >= -1 ;
+1 x15 -1 x119 >= 0 ;
+1 x17 -1 x119 >= 0 ;
-1 x15 -1 x17 +1 x119 >= -1 ;
+1 x15 -1 x120 >= 0 ;
+1 x18 -1 x120 >= 0 ;
-1 x15 -1 x18 +1 x120 >= -1 ;
+1 x16 -1 x121 >= 0 ;
+1 x17 -1 x121 >= 0 ;
-1 x16 -1 x17 +1 x121 >= -1 ;
+1 x16 -1 x122 >= 0 ;
+1 x18 -1 x122 >= 0 ;
-1 x16 -1 x18 +1 x122 >= -1 ;
+1 x17 -1 x123 >= 0 ;
+1 x19 -1 x123 >= 0 ;
-1 x17 -1 x19 +1 x123 >= -1 ;
+1 x17 -1 x124 >= 0 ;
+1 x20 -1 x124 >= 0 ;
-1 x17 -1 x20 +1 x124 >= -1 ;
+1 x18 -1 x125 >= 0 ;
+1 x19 -1 x125 >= 0 ;
-1 x18 -1 x19 +1 x125 >= -1 ;
+1 x18 -1 x126 >= 0 ;
+1 x20 -1 x126 >= 0 ;
-1 x18 -1 x20 +1 x126 >= -1 ;
+1 x19 -1 x127 >= 0 ;
+1 x21 -1 x127 >= 0 ;
-1 x19 -1 x21 +1 x127 >= -1 ;
+1 x19 -1 x128 >= 0 ;
+1 x22 -1 x128 >= 0 ;
-1 x19 -1 x22 +1 x128 >= -1 ;
+1 x20 -1 x129 >= 0 ;
+1 x21 -1 x129 >= 0 ;
-1 x20 -1 x21 +1 x129 >= -1 ;
+1 x20 -1 x130 >= 0 ;
+1 x22 -1 x130 >= 0 ;
-1 x20 -1 x22 +1 x130 >= -1 ;
+1 x21 -1 x131 >= 0 ;
+1 x23 -1 x131 >= 0 ;
-1 x21 -1 x23 +1 x131 >= -1 ;
+1 x21 -1 x132 >= 0 ;
+1 x24 -1 x132 >= 0 ;
-1 x21 -1 x24 +1 x132 >= -1 ;
+1 x22 -1 x133 >= 0 ;
+1 x23 -1 x133 >= 0 ;
-1 x22 -1 x23 +1 x133 >= -1 ;
+1 x22 -1 x134 >= 0 ;
+1 x24 -1 x134 >= 0 ;
-1 x22 -1 x24 +1 x134 >= -1 ;
+1 x23 -1 x135 >= 0 ;
+1 x25 -1 x135 >= 0 ;
-1 x23 -1 x25 +1 x135 >= -1 ;
+1 x23 -1 x136 >= 0 ;
+1 x26 -1 x136 >= 0 ;
-1 x23 -1 x26 +1 x136 >= -1 ;
+1 x24 -1 x137 >= 0 ;
+1 x25 -1 x137 >= 0 ;
-1 x24 -1 x25 +1 x137 >= -1 ;
+1 x24 -1 x138 >= 0 ;
+1 x26 -1 x138 >= 0 ;
-1 x24 -1 x26 +1 x138 >= -1 ;
+1 x25 -1 x139 >= 0 ;
+1 x27 -1 x139 >= 0 ;
-1 x25 -1 x27 +1 x139 >= -1 ;
+1 x25 -1 x140 >= 0 ;
+1 x28 -1 x140 >= 0 ;
-1 x25 -1 x28 +1 x140 >= -1 ;
+1 x26 -1 x141 >= 0 ;
+1 x27 -1 x141 >= 0 ;
-1 x26 -1 x27 +1 x141 >= -1 ;
+1 x26 -1 x142 >= 0 ;
+1 x28 -1 x142 >= 0 ;
-1 x26 -1 x28 +1 x142 >= -1 ;
+1 x27 -1 x143 >= 0 ;
+1 x29 -1 x143 >= 0 ;
-1 x27 -1 x29 +1 x143 >= -1 ;
+1 x27 -1 x144 >= 0 ;
+1 x30 -1 x144 >= 0 ;
-1 x27 -1 x30 +1 x144 >= -1 ;
+1 x28 -1 x145 >= 0 ;
+1 x29 -1 x145 >= 0 ;
-1 x28 -1 x29 +1 x145 >= -1 ;
+1 x28 -1 x146 >= 0 ;
+1 x30 -1 x146 >= 0 ;
-1 x28 -1 x30 +1 x146 >= -1 ;
+1 x29 -1 x147 >= 0 ;
+1 x1 -1 x147 >= 0 ;
-1 x29 -1 x1 +1 x147 >= -1 ;
+1 x29 -1 x148 >= 0 ;
+1 x2 -1 x148 >= 0 ;
-1 x29 -1 x2 +1 x148 >= -1 ;
+1 x30 -1 x149 >= 0 ;
+1 x1 -1 x149 >= 0 ;
-1 x30 -1 x1 +1 x149 >= -1 ;
+1 x30 -1 x150 >= 0 ;
+1 x2 -1 x150 >= 0 ;
-1 x30 -1 x2 +1 x150 >= -1 ;
+1 x1 -1 x151 >= 0 ;
+1 x5 -1 x151 >= 0 ;
-1 x1 -1 x5 +1 x151 >= -1 ;
+1 x1 -1 x152 >= 0 ;
+1 x6 -1 x152 >= 0 ;
-1 x1 -1 x6 +1 x152 >= -1 ;
+1 x2 -1 x153 >= 0 ;
+1 x5 -1 x153 >= 0 ;
-1 x2 -1 x5 +1 x153 >= -1 ;
+1 x2 -1 x154 >= 0 ;
+1 x6 -1 x154 >= 0 ;
-1 x2 -1 x6 +1 x154 >= -1 ;
+1 x3 -1 x155 >= 0 ;
+1 x7 -1 x155 >= 0 ;
-1 x3 -1 x7 +1 x155 >= -1 ;
+1 x3 -1 x156 >= 0 ;
+1 x8 -1 x156 >= 0 ;
-1 x3 -1 x8 +1 x156 >= -1 ;
+1 x4 -1 x157 >= 0 ;
+1 x7 -1 x157 >= 0 ;
-1 x4 -1 x7 +1 x157 >= -1 ;
+1 x4 -1 x158 >= 0 ;
+1 x8 -1 x158 >= 0 ;
-1 x4 -1 x8 +1 x158 >= -1 ;
+1 x5 -1 x159 >= 0 ;
+1 x9 -1 x159 >= 0 ;
-1 x5 -1 x9 +1 x159 >= -1 ;
+1 x5 -1 x160 >= 0 ;
+1 x10 -1 x160 >= 0 ;
-1 x5 -1 x10 +1 x160 >= -1 ;
+1 x6 -1 x161 >= 0 ;
+1 x9 -1 x161 >= 0 ;
-1 x6 -1 x9 +1 x161 >= -1 ;
+1 x6 -1 x162 >= 0 ;
+1 x10 -1 x162 >= 0 ;
-1 x6 -1 x10 +1 x162 >= -1 ;
+1 x7 -1 x163 >= 0 ;
+1 x11 -1 x163 >= 0 ;
-1 x7 -1 x11 +1 x163 >= -1 ;
+1 x7 -1 x164 >= 0 ;
+1 x12 -1 x164 >= 0 ;
-1 x7 -1 x12 +1 x164 >= -1 ;
+1 x8 -1 x165 >= 0 ;
+1 x11 -1 x165 >= 0 ;
-1 x8 -1 x11 +1 x165 >= -1 ;
+1 x8 -1 x166 >= 0 ;
+1 x12 -1 x166 >= 0 ;
-1 x8 -1 x12 +1 x166 >= -1 ;
+1 x9 -1 x167 >= 0 ;
+1 x13 -1 x167 >= 0 ;
-1 x9 -1 x13 +1 x167 >= -1 ;
+1 x9 -1 x168 >= 0 ;
+1 x14 -1 x168 >= 0 ;
-1 x9 -1 x14 +1 x168 >= -1 ;
+1 x10 -1 x169 >= 0 ;
+1 x13 -1 x169 >= 0 ;
-1 x10 -1 x13 +1 x169 >= -1 ;
+1 x10 -1 x170 >= 0 ;
+1 x14 -1 x170 >= 0 ;
-1 x10 -1 x14 +1 x170 >= -1 ;
+1 x11 -1 x171 >= 0 ;
+1 x15 -1 x171 >= 0 ;
-1 x11 -1 x15 +1 x171 >= -1 ;
+1 x11 -1 x172 >= 0 ;
+1 x16 -1 x172 >= 0 ;
-1 x11 -1 x16 +1 x172 >= -1 ;
+1 x12 -1 x173 >= 0 ;
+1 x15 -1 x173 >= 0 ;
-1 x12 -1 x15 +1 x173 >= -1 ;
+1 x12 -1 x174 >= 0 ;
+1 x16 -1 x174 >= 0 ;
-1 x12 -1 x16 +1 x174 >= -1 ;
+1 x13 -1 x175 >= 0 ;
+1 x17 -1 x175 >= 0 ;
-1 x13 -1 x17 +1 x175 >= -1 ;
+1 x13 -1 x176 >= 0 ;
+1 x18 -1 x176 >= 0 ;
-1 x13 -1 x18 +1 x176 >= -1 ;
+1 x14 -1 x177 >= 0 ;
+1 x17 -1 x177 >= 0 ;
-1 x14 -1 x17 +1 x177 >= -1 ;
+1 x14 -1 x178 >= 0 ;
+1 x18 -1 x178 >= 0 ;
-1 x14 -1 x18 +1 x178 >= -1 ;
+1 x15 -1 x179 >= 0 ;
+1 x19 -1 x179 >= 0 ;
-1 x15 -1 x19 +1 x179 >= -1 ;
+1 x15 -1 x180 >= 0 ;
+1 x20 -1 x180 >= 0 ;
-1 x15 -1 x20 +1 x180 >= -1 ;
+1 x16 -1 x181 >= 0 ;
+1 x19 -1 x181 >= 0 ;
-1 x16 -1 x19 +1 x181 >= -1 ;
+1 x16 -1 x182 >= 0 ;
+1 x20 -1 x182 >= 0 ;
-1 x16 -1 x20 +1 x182 >= -1 ;
+1 x17 -1 x183 >= 0 ;
+1 x21 -1 x183 >= 0 ;
-1 x17 -1 x21 +1 x183 >= -1 ;
+1 x17 -1 x184 >= 0 ;
+1 x22 -1 x184 >= 0 ;
-1 x17 -1 x22 +1 x184 >= -1 ;
+1 x18 -1 x185 >= 0 ;
+1 x21 -1 x185 >= 0 ;
-1 x18 -1 x21 +1 x185 >= -1 ;
+1 x18 -1 x186 >= 0 ;
+1 x22 -1 x186 >= 0 ;
-1 x18 -1 x22 +1 x186 >= -1 ;
+1 x19 -1 x187 >= 0 ;
+1 x23 -1 x187 >= 0 ;
-1 x19 -1 x23 +1 x187 >= -1 ;
+1 x19 -1 x188 >= 0 ;
+1 x24 -1 x188 >= 0 ;
-1 x19 -1 x24 +1 x188 >= -1 ;
+1 x20 -1 x189 >= 0 ;
+1 x23 -1 x189 >= 0 ;
-1 x20 -1 x23 +1 x189 >= -1 ;
+1 x20 -1 x190 >= 0 ;
+1 x24 -1 x190 >= 0 ;
-1 x20 -1 x24 +1 x190 >= -1 ;
+1 x21 -1 x191 >= 0 ;
+1 x25 -1 x191 >= 0 ;
-1 x21 -1 x25 +1 x191 >= -1 ;
+1 x21 -1 x192 >= 0 ;
+1 x26 -1 x192 >= 0 ;
-1 x21 -1 x26 +1 x192 >= -1 ;
+1 x22 -1 x193 >= 0 ;
+1 x25 -1 x193 >= 0 ;
-1 x22 -1 x25 +1 x193 >= -1 ;
+1 x22 -1 x194 >= 0 ;
+1 x26 -1 x194 >= 0 ;
-1 x22 -1 x26 +1 x194 >= -1 ;
+1 x23 -1 x195 >= 0 ;
+1 x27 -1 x195 >= 0 ;
-1 x23 -1 x27 +1 x195 >= -1 ;
+1 x23 -1 x196 >= 0 ;
+1 x28 -1 x196 >= 0 ;
-1 x23 -1 x28 +1 x196 >= -1 ;
+1 x24 -1 x197 >= 0 ;
+1 x27 -1 x197 >= 0 ;
-1 x24 -1 x27 +1 x197 >= -1 ;
+1 x24 -1 x198 >= 0 ;
+1 x28 -1 x198 >= 0 ;
-1 x24 -1 x28 +1 x198 >= -1 ;
+1 x25 -1 x199 >= 0 ;
+1 x29 -1 x199 >= 0 ;
-1 x25 -1 x29 +1 x199 >= -1 ;
+1 x25 -1 x200 >= 0 ;
+1 x30 -1 x200 >= 0 ;
-1 x25 -1 x30 +1 x200 >= -1 ;
+1 x26 -1 x201 >= 0 ;
+1 x29 -1 x201 >= 0 ;
-1 x26 -1 x29 +1 x201 >= -1 ;
+1 x26 -1 x202 >= 0 ;
+1 x30 -1 x202 >= 0 ;
-1 x26 -1 x30 +1 x202 >= -1 ;
+1 x27 -1 x203 >= 0 ;
+1 x1 -1 x203 >= 0 ;
-1 x27 -1 x1 +1 x203 >= -1 ;
+1 x27 -1 x204 >= 0 ;
+1 x2 -1 x204 >= 0 ;
-1 x27 -1 x2 +1 x204 >= -1 ;
+1 x28 -1 x205 >= 0 ;
+1 x1 -1 x205 >= 0 ;
-1 x28 -1 x1 +1 x205 >= -1 ;
+1 x28 -1 x206 >= 0 ;
+1 x2 -1 x206 >= 0 ;
-1 x28 -1 x2 +1 x206 >= -1 ;
+1 x29 -1 x207 >= 0 ;
+1 x3 -1 x207 >= 0 ;
-1 x29 -1 x3 +1 x207 >= -1 ;
+1 x29 -1 x208 >= 0 ;
+1 x4 -1 x208 >= 0 ;
-1 x29 -1 x4 +1 x208 >= -1 ;
+1 x30 -1 x209 >= 0 ;
+1 x3 -1 x209 >= 0 ;
-1 x30 -1 x3 +1 x209 >= -1 ;
+1 x30 -1 x210 >= 0 ;
+1 x4 -1 x210 >= 0 ;
-1 x30 -1 x4 +1 x210 >= -1 ;
+1 x1 -1 x211 >= 0 ;
+1 x7 -1 x211 >= 0 ;
-1 x1 -1 x7 +1 x211 >= -1 ;
+1 x1 -1 x212 >= 0 ;
+1 x8 -1 x212 >= 0 ;
-1 x1 -1 x8 +1 x212 >= -1 ;
+1 x2 -1 x213 >= 0 ;
+1 x7 -1 x213 >= 0 ;
-1 x2 -1 x7 +1 x213 >= -1 ;
+1 x2 -1 x214 >= 0 ;
+1 x8 -1 x214 >= 0 ;
-1 x2 -1 x8 +1 x214 >= -1 ;
+1 x3 -1 x215 >= 0 ;
+1 x9 -1 x215 >= 0 ;
-1 x3 -1 x9 +1 x215 >= -1 ;
+1 x3 -1 x216 >= 0 ;
+1 x10 -1 x216 >= 0 ;
-1 x3 -1 x10 +1 x216 >= -1 ;
+1 x4 -1 x217 >= 0 ;
+1 x9 -1 x217 >= 0 ;
-1 x4 -1 x9 +1 x217 >= -1 ;
+1 x4 -1 x218 >= 0 ;
+1 x10 -1 x218 >= 0 ;
-1 x4 -1 x10 +1 x218 >= -1 ;
+1 x5 -1 x219 >= 0 ;
+1 x11 -1 x219 >= 0 ;
-1 x5 -1 x11 +1 x219 >= -1 ;
+1 x5 -1 x220 >= 0 ;
+1 x12 -1 x220 >= 0 ;
-1 x5 -1 x12 +1 x220 >= -1 ;
+1 x6 -1 x221 >= 0 ;
+1 x11 -1 x221 >= 0 ;
-1 x6 -1 x11 +1 x221 >= -1 ;
+1 x6 -1 x222 >= 0 ;
+1 x12 -1 x222 >= 0 ;
-1 x6 -1 x12 +1 x222 >= -1 ;
+1 x7 -1 x223 >= 0 ;
+1 x13 -1 x223 >= 0 ;
-1 x7 -1 x13 +1 x223 >= -1 ;
+1 x7 -1 x224 >= 0 ;
+1 x14 -1 x224 >= 0 ;
-1 x7 -1 x14 +1 x224 >= -1 ;
+1 x8 -1 x225 >= 0 ;
+1 x13 -1 x225 >= 0 ;
-1 x8 -1 x13 +1 x225 >= -1 ;
+1 x8 -1 x226 >= 0 ;
+1 x14 -1 x226 >= 0 ;
-1 x8 -1 x14 +1 x226 >= -1 ;
+1 x9 -1 x227 >= 0 ;
+1 x15 -1 x227 >= 0 ;
-1 x9 -1 x15 +1 x227 >= -1 ;
+1 x9 -1 x228 >= 0 ;
+1 x16 -1 x228 >= 0 ;
-1 x9 -1 x16 +1 x228 >= -1 ;
+1 x10 -1 x229 >= 0 ;
+1 x15 -1 x229 >= 0 ;
-1 x10 -1 x15 +1 x229 >= -1 ;
+1 x10 -1 x230 >= 0 ;
+1 x16 -1 x230 >= 0 ;
-1 x10 -1 x16 +1 x230 >= -1 ;
+1 x11 -1 x231 >= 0 ;
+1 x17 -1 x231 >= 0 ;
-1 x11 -1 x17 +1 x231 >= -1 ;
+1 x11 -1 x232 >= 0 ;
+1 x18 -1 x232 >= 0 ;
-1 x11 -1 x18 +1 x232 >= -1 ;
+1 x12 -1 x233 >= 0 ;
+1 x17 -1 x233 >= 0 ;
-1 x12 -1 x17 +1 x233 >= -1 ;
+1 x12 -1 x234 >= 0 ;
+1 x18 -1 x234 >= 0 ;
-1 x12 -1 x18 +1 x234 >= -1 ;
+1 x13 -1 x235 >= 0 ;
+1 x19 -1 x235 >= 0 ;
-1 x13 -1 x19 +1 x235 >= -1 ;
+1 x13 -1 x236 >= 0 ;
+1 x20 -1 x236 >= 0 ;
-1 x13 -1 x20 +1 x236 >= -1 ;
+1 x14 -1 x237 >= 0 ;
+1 x19 -1 x237 >= 0 ;
-1 x14 -1 x19 +1 x237 >= -1 ;
+1 x14 -1 x238 >= 0 ;
+1 x20 -1 x238 >= 0 ;
-1 x14 -1 x20 +1 x238 >= -1 ;
+1 x15 -1 x239 >= 0 ;
+1 x21 -1 x239 >= 0 ;
-1 x15 -1 x21 +1 x239 >= -1 ;
+1 x15 -1 x240 >= 0 ;
+1 x22 -1 x240 >= 0 ;
-1 x15 -1 x22 +1 x240 >= -1 ;
+1 x16 -1 x241 >= 0 ;
+1 x21 -1 x241 >= 0 ;
-1 x16 -1 x21 +1 x241 >= -1 ;
+1 x16 -1 x242 >= 0 ;
+1 x22 -1 x242 >= 0 ;
-1 x16 -1 x22 +1 x242 >= -1 ;
+1 x17 -1 x243 >= 0 ;
+1 x23 -1 x243 >= 0 ;
-1 x17 -1 x23 +1 x243 >= -1 ;
+1 x17 -1 x244 >= 0 ;
+1 x24 -1 x244 >= 0 ;
-1 x17 -1 x24 +1 x244 >= -1 ;
+1 x18 -1 x245 >= 0 ;
+1 x23 -1 x245 >= 0 ;
-1 x18 -1 x23 +1 x245 >= -1 ;
+1 x18 -1 x246 >= 0 ;
+1 x24 -1 x246 >= 0 ;
-1 x18 -1 x24 +1 x246 >= -1 ;
+1 x19 -1 x247 >= 0 ;
+1 x25 -1 x247 >= 0 ;
-1 x19 -1 x25 +1 x247 >= -1 ;
+1 x19 -1 x248 >= 0 ;
+1 x26 -1 x248 >= 0 ;
-1 x19 -1 x26 +1 x248 >= -1 ;
+1 x20 -1 x249 >= 0 ;
+1 x25 -1 x249 >= 0 ;
-1 x20 -1 x25 +1 x249 >= -1 ;
+1 x20 -1 x250 >= 0 ;
+1 x26 -1 x250 >= 0 ;
-1 x20 -1 x26 +1 x250 >= -1 ;
+1 x21 -1 x251 >= 0 ;
+1 x27 -1 x251 >= 0 ;
-1 x21 -1 x27 +1 x251 >= -1 ;
+1 x21 -1 x252 >= 0 ;
+1 x28 -1 x252 >= 0 ;
-1 x21 -1 x28 +1 x252 >= -1 ;
+1 x22 -1 x253 >= 0 ;
+1 x27 -1 x253 >= 0 ;
-1 x22 -1 x27 +1 x253 >= -1 ;
+1 x22 -1 x254 >= 0 ;
+1 x28 -1 x254 >= 0 ;
-1 x22 -1 x28 +1 x254 >= -1 ;
+1 x23 -1 x255 >= 0 ;
+1 x29 -1 x255 >= 0 ;
-1 x23 -1 x29 +1 x255 >= -1 ;
+1 x23 -1 x256 >= 0 ;
+1 x30 -1 x256 >= 0 ;
-1 x23 -1 x30 +1 x256 >= -1 ;
+1 x24 -1 x257 >= 0 ;
+1 x29 -1 x257 >= 0 ;
-1 x24 -1 x29 +1 x257 >= -1 ;
+1 x24 -1 x258 >= 0 ;
+1 x30 -1 x258 >= 0 ;
-1 x24 -1 x30 +1 x258 >= -1 ;
+1 x25 -1 x259 >= 0 ;
+1 x1 -1 x259 >= 0 ;
-1 x25 -1 x1 +1 x259 >= -1 ;
+1 x25 -1 x260 >= 0 ;
+1 x2 -1 x260 >= 0 ;
-1 x25 -1 x2 +1 x260 >= -1 ;
+1 x26 -1 x261 >= 0 ;
+1 x1 -1 x261 >= 0 ;
-1 x26 -1 x1 +1 x261 >= -1 ;
+1 x26 -1 x262 >= 0 ;
+1 x2 -1 x262 >= 0 ;
-1 x26 -1 x2 +1 x262 >= -1 ;
+1 x27 -1 x263 >= 0 ;
+1 x3 -1 x263 >= 0 ;
-1 x27 -1 x3 +1 x263 >= -1 ;
+1 x27 -1 x264 >= 0 ;
+1 x4 -1 x264 >= 0 ;
-1 x27 -1 x4 +1 x264 >= -1 ;
+1 x28 -1 x265 >= 0 ;
+1 x3 -1 x265 >= 0 ;
-1 x28 -1 x3 +1 x265 >= -1 ;
+1 x28 -1 x266 >= 0 ;
+1 x4 -1 x266 >= 0 ;
-1 x28 -1 x4 +1 x266 >= -1 ;
+1 x29 -1 x267 >= 0 ;
+1 x5 -1 x267 >= 0 ;
-1 x29 -1 x5 +1 x267 >= -1 ;
+1 x29 -1 x268 >= 0 ;
+1 x6 -1 x268 >= 0 ;
-1 x29 -1 x6 +1 x268 >= -1 ;
+1 x30 -1 x269 >= 0 ;
+1 x5 -1 x269 >= 0 ;
-1 x30 -1 x5 +1 x269 >= -1 ;
+1 x30 -1 x270 >= 0 ;
+1 x6 -1 x270 >= 0 ;
-1 x30 -1 x6 +1 x270 >= -1 ;
+1 x1 -1 x271 >= 0 ;
+1 x9 -1 x271 >= 0 ;
-1 x1 -1 x9 +1 x271 >= -1 ;
+1 x1 -1 x272 >= 0 ;
+1 x10 -1 x272 >= 0 ;
-1 x1 -1 x10 +1 x272 >= -1 ;
+1 x2 -1 x273 >= 0 ;
+1 x9 -1 x273 >= 0 ;
-1 x2 -1 x9 +1 x273 >= -1 ;
+1 x2 -1 x274 >= 0 ;
+1 x10 -1 x274 >= 0 ;
-1 x2 -1 x10 +1 x274 >= -1 ;
+1 x3 -1 x275 >= 0 ;
+1 x11 -1 x275 >= 0 ;
-1 x3 -1 x11 +1 x275 >= -1 ;
+1 x3 -1 x276 >= 0 ;
+1 x12 -1 x276 >= 0 ;
-1 x3 -1 x12 +1 x276 >= -1 ;
+1 x4 -1 x277 >= 0 ;
+1 x11 -1 x277 >= 0 ;
-1 x4 -1 x11 +1 x277 >= -1 ;
+1 x4 -1 x278 >= 0 ;
+1 x12 -1 x278 >= 0 ;
-1 x4 -1 x12 +1 x278 >= -1 ;
+1 x5 -1 x279 >= 0 ;
+1 x13 -1 x279 >= 0 ;
-1 x5 -1 x13 +1 x279 >= -1 ;
+1 x5 -1 x280 >= 0 ;
+1 x14 -1 x280 >= 0 ;
-1 x5 -1 x14 +1 x280 >= -1 ;
+1 x6 -1 x281 >= 0 ;
+1 x13 -1 x281 >= 0 ;
-1 x6 -1 x13 +1 x281 >= -1 ;
+1 x6 -1 x282 >= 0 ;
+1 x14 -1 x282 >= 0 ;
-1 x6 -1 x14 +1 x282 >= -1 ;
+1 x7 -1 x283 >= 0 ;
+1 x15 -1 x283 >= 0 ;
-1 x7 -1 x15 +1 x283 >= -1 ;
+1 x7 -1 x284 >= 0 ;
+1 x16 -1 x284 >= 0 ;
-1 x7 -1 x16 +1 x284 >= -1 ;
+1 x8 -1 x285 >= 0 ;
+1 x15 -1 x285 >= 0 ;
-1 x8 -1 x15 +1 x285 >= -1 ;
+1 x8 -1 x286 >= 0 ;
+1 x16 -1 x286 >= 0 ;
-1 x8 -1 x16 +1 x286 >= -1 ;
+1 x9 -1 x287 >= 0 ;
+1 x17 -1 x287 >= 0 ;
-1 x9 -1 x17 +1 x287 >= -1 ;
+1 x9 -1 x288 >= 0 ;
+1 x18 -1 x288 >= 0 ;
-1 x9 -1 x18 +1 x288 >= -1 ;
+1 x10 -1 x289 >= 0 ;
+1 x17 -1 x289 >= 0 ;
-1 x10 -1 x17 +1 x289 >= -1 ;
+1 x10 -1 x290 >= 0 ;
+1 x18 -1 x290 >= 0 ;
-1 x10 -1 x18 +1 x290 >= -1 ;
+1 x11 -1 x291 >= 0 ;
+1 x19 -1 x291 >= 0 ;
-1 x11 -1 x19 +1 x291 >= -1 ;
+1 x11 -1 x292 >= 0 ;
+1 x20 -1 x292 >= 0 ;
-1 x11 -1 x20 +1 x292 >= -1 ;
+1 x12 -1 x293 >= 0 ;
+1 x19 -1 x293 >= 0 ;
-1 x12 -1 x19 +1 x293 >= -1 ;
+1 x12 -1 x294 >= 0 ;
+1 x20 -1 x294 >= 0 ;
-1 x12 -1 x20 +1 x294 >= -1 ;
+1 x13 -1 x295 >= 0 ;
+1 x21 -1 x295 >= 0 ;
-1 x13 -1 x21 +1 x295 >= -1 ;
+1 x13 -1 x296 >= 0 ;
+1 x22 -1 x296 >= 0 ;
-1 x13 -1 x22 +1 x296 >= -1 ;
+1 x14 -1 x297 >= 0 ;
+1 x21 -1 x297 >= 0 ;
-1 x14 -1 x21 +1 x297 >= -1 ;
+1 x14 -1 x298 >= 0 ;
+1 x22 -1 x298 >= 0 ;
-1 x14 -1 x22 +1 x298 >= -1 ;
+1 x15 -1 x299 >= 0 ;
+1 x23 -1 x299 >= 0 ;
-1 x15 -1 x23 +1 x299 >= -1 ;
+1 x15 -1 x300 >= 0 ;
+1 x24 -1 x300 >= 0 ;
-1 x15 -1 x24 +1 x300 >= -1 ;
+1 x16 -1 x301 >= 0 ;
+1 x23 -1 x301 >= 0 ;
-1 x16 -1 x23 +1 x301 >= -1 ;
+1 x16 -1 x302 >= 0 ;
+1 x24 -1 x302 >= 0 ;
-1 x16 -1 x24 +1 x302 >= -1 ;
+1 x17 -1 x303 >= 0 ;
+1 x25 -1 x303 >= 0 ;
-1 x17 -1 x25 +1 x303 >= -1 ;
+1 x17 -1 x304 >= 0 ;
+1 x26 -1 x304 >= 0 ;
-1 x17 -1 x26 +1 x304 >= -1 ;
+1 x18 -1 x305 >= 0 ;
+1 x25 -1 x305 >= 0 ;
-1 x18 -1 x25 +1 x305 >= -1 ;
+1 x18 -1 x306 >= 0 ;
+1 x26 -1 x306 >= 0 ;
-1 x18 -1 x26 +1 x306 >= -1 ;
+1 x19 -1 x307 >= 0 ;
+1 x27 -1 x307 >= 0 ;
-1 x19 -1 x27 +1 x307 >= -1 ;
+1 x19 -1 x308 >= 0 ;
+1 x28 -1 x308 >= 0 ;
-1 x19 -1 x28 +1 x308 >= -1 ;
+1 x20 -1 x309 >= 0 ;
+1 x27 -1 x309 >= 0 ;
-1 x20 -1 x27 +1 x309 >= -1 ;
+1 x20 -1 x310 >= 0 ;
+1 x28 -1 x310 >= 0 ;
-1 x20 -1 x28 +1 x310 >= -1 ;
+1 x21 -1 x311 >= 0 ;
+1 x29 -1 x311 >= 0 ;
-1 x21 -1 x29 +1 x311 >= -1 ;
+1 x21 -1 x312 >= 0 ;
+1 x30 -1 x312 >= 0 ;
-1 x21 -1 x30 +1 x312 >= -1 ;
+1 x22 -1 x313 >= 0 ;
+1 x29 -1 x313 >= 0 ;
-1 x22 -1 x29 +1 x313 >= -1 ;
+1 x22 -1 x314 >= 0 ;
+1 x30 -1 x314 >= 0 ;
-1 x22 -1 x30 +1 x314 >= -1 ;
+1 x23 -1 x315 >= 0 ;
+1 x1 -1 x315 >= 0 ;
-1 x23 -1 x1 +1 x315 >= -1 ;
+1 x23 -1 x316 >= 0 ;
+1 x2 -1 x316 >= 0 ;
-1 x23 -1 x2 +1 x316 >= -1 ;
+1 x24 -1 x317 >= 0 ;
+1 x1 -1 x317 >= 0 ;
-1 x24 -1 x1 +1 x317 >= -1 ;
+1 x24 -1 x318 >= 0 ;
+1 x2 -1 x318 >= 0 ;
-1 x24 -1 x2 +1 x318 >= -1 ;
+1 x25 -1 x319 >= 0 ;
+1 x3 -1 x319 >= 0 ;
-1 x25 -1 x3 +1 x319 >= -1 ;
+1 x25 -1 x320 >= 0 ;
+1 x4 -1 x320 >= 0 ;
-1 x25 -1 x4 +1 x320 >= -1 ;
+1 x26 -1 x321 >= 0 ;
+1 x3 -1 x321 >= 0 ;
-1 x26 -1 x3 +1 x321 >= -1 ;
+1 x26 -1 x322 >= 0 ;
+1 x4 -1 x322 >= 0 ;
-1 x26 -1 x4 +1 x322 >= -1 ;
+1 x27 -1 x323 >= 0 ;
+1 x5 -1 x323 >= 0 ;
-1 x27 -1 x5 +1 x323 >= -1 ;
+1 x27 -1 x324 >= 0 ;
+1 x6 -1 x324 >= 0 ;
-1 x27 -1 x6 +1 x324 >= -1 ;
+1 x28 -1 x325 >= 0 ;
+1 x5 -1 x325 >= 0 ;
-1 x28 -1 x5 +1 x325 >= -1 ;
+1 x28 -1 x326 >= 0 ;
+1 x6 -1 x326 >= 0 ;
-1 x28 -1 x6 +1 x326 >= -1 ;
+1 x29 -1 x327 >= 0 ;
+1 x7 -1 x327 >= 0 ;
-1 x29 -1 x7 +1 x327 >= -1 ;
+1 x29 -1 x328 >= 0 ;
+1 x8 -1 x328 >= 0 ;
-1 x29 -1 x8 +1 x328 >= -1 ;
+1 x30 -1 x329 >= 0 ;
+1 x7 -1 x329 >= 0 ;
-1 x30 -1 x7 +1 x329 >= -1 ;
+1 x30 -1 x330 >= 0 ;
+1 x8 -1 x330 >= 0 ;
-1 x30 -1 x8 +1 x330 >= -1 ;
+1 x1 -1 x331 >= 0 ;
+1 x11 -1 x331 >= 0 ;
-1 x1 -1 x11 +1 x331 >= -1 ;
+1 x1 -1 x332 >= 0 ;
+1 x12 -1 x332 >= 0 ;
-1 x1 -1 x12 +1 x332 >= -1 ;
+1 x2 -1 x333 >= 0 ;
+1 x11 -1 x333 >= 0 ;
-1 x2 -1 x11 +1 x333 >= -1 ;
+1 x2 -1 x334 >= 0 ;
+1 x12 -1 x334 >= 0 ;
-1 x2 -1 x12 +1 x334 >= -1 ;
+1 x3 -1 x335 >= 0 ;
+1 x13 -1 x335 >= 0 ;
-1 x3 -1 x13 +1 x335 >= -1 ;
+1 x3 -1 x336 >= 0 ;
+1 x14 -1 x336 >= 0 ;
-1 x3 -1 x14 +1 x336 >= -1 ;
+1 x4 -1 x337 >= 0 ;
+1 x13 -1 x337 >= 0 ;
-1 x4 -1 x13 +1 x337 >= -1 ;
+1 x4 -1 x338 >= 0 ;
+1 x14 -1 x338 >= 0 ;
-1 x4 -1 x14 +1 x338 >= -1 ;
+1 x5 -1 x339 >= 0 ;
+1 x15 -1 x339 >= 0 ;
-1 x5 -1 x15 +1 x339 >= -1 ;
+1 x5 -1 x340 >= 0 ;
+1 x16 -1 x340 >= 0 ;
-1 x5 -1 x16 +1 x340 >= -1 ;
+1 x6 -1 x341 >= 0 ;
+1 x15 -1 x341 >= 0 ;
-1 x6 -1 x15 +1 x341 >= -1 ;
+1 x6 -1 x342 >= 0 ;
+1 x16 -1 x342 >= 0 ;
-1 x6 -1 x16 +1 x342 >= -1 ;
+1 x7 -1 x343 >= 0 ;
+1 x17 -1 x343 >= 0 ;
-1 x7 -1 x17 +1 x343 >= -1 ;
+1 x7 -1 x344 >= 0 ;
+1 x18 -1 x344 >= 0 ;
-1 x7 -1 x18 +1 x344 >= -1 ;
+1 x8 -1 x345 >= 0 ;
+1 x17 -1 x345 >= 0 ;
-1 x8 -1 x17 +1 x345 >= -1 ;
+1 x8 -1 x346 >= 0 ;
+1 x18 -1 x346 >= 0 ;
-1 x8 -1 x18 +1 x346 >= -1 ;
+1 x9 -1 x347 >= 0 ;
+1 x19 -1 x347 >= 0 ;
-1 x9 -1 x19 +1 x347 >= -1 ;
+1 x9 -1 x348 >= 0 ;
+1 x20 -1 x348 >= 0 ;
-1 x9 -1 x20 +1 x348 >= -1 ;
+1 x10 -1 x349 >= 0 ;
+1 x19 -1 x349 >= 0 ;
-1 x10 -1 x19 +1 x349 >= -1 ;
+1 x10 -1 x350 >= 0 ;
+1 x20 -1 x350 >= 0 ;
-1 x10 -1 x20 +1 x350 >= -1 ;
+1 x11 -1 x351 >= 0 ;
+1 x21 -1 x351 >= 0 ;
-1 x11 -1 x21 +1 x351 >= -1 ;
+1 x11 -1 x352 >= 0 ;
+1 x22 -1 x352 >= 0 ;
-1 x11 -1 x22 +1 x352 >= -1 ;
+1 x12 -1 x353 >= 0 ;
+1 x21 -1 x353 >= 0 ;
-1 x12 -1 x21 +1 x353 >= -1 ;
+1 x12 -1 x354 >= 0 ;
+1 x22 -1 x354 >= 0 ;
-1 x12 -1 x22 +1 x354 >= -1 ;
+1 x13 -1 x355 >= 0 ;
+1 x23 -1 x355 >= 0 ;
-1 x13 -1 x23 +1 x355 >= -1 ;
+1 x13 -1 x356 >= 0 ;
+1 x24 -1 x356 >= 0 ;
-1 x13 -1 x24 +1 x356 >= -1 ;
+1 x14 -1 x357 >= 0 ;
+1 x23 -1 x357 >= 0 ;
-1 x14 -1 x23 +1 x357 >= -1 ;
+1 x14 -1 x358 >= 0 ;
+1 x24 -1 x358 >= 0 ;
-1 x14 -1 x24 +1 x358 >= -1 ;
+1 x15 -1 x359 >= 0 ;
+1 x25 -1 x359 >= 0 ;
-1 x15 -1 x25 +1 x359 >= -1 ;
+1 x15 -1 x360 >= 0 ;
+1 x26 -1 x360 >= 0 ;
-1 x15 -1 x26 +1 x360 >= -1 ;
+1 x16 -1 x361 >= 0 ;
+1 x25 -1 x361 >= 0 ;
-1 x16 -1 x25 +1 x361 >= -1 ;
+1 x16 -1 x362 >= 0 ;
+1 x26 -1 x362 >= 0 ;
-1 x16 -1 x26 +1 x362 >= -1 ;
+1 x17 -1 x363 >= 0 ;
+1 x27 -1 x363 >= 0 ;
-1 x17 -1 x27 +1 x363 >= -1 ;
+1 x17 -1 x364 >= 0 ;
+1 x28 -1 x364 >= 0 ;
-1 x17 -1 x28 +1 x364 >= -1 ;
+1 x18 -1 x365 >= 0 ;
+1 x27 -1 x365 >= 0 ;
-1 x18 -1 x27 +1 x365 >= -1 ;
+1 x18 -1 x366 >= 0 ;
+1 x28 -1 x366 >= 0 ;
-1 x18 -1 x28 +1 x366 >= -1 ;
+1 x19 -1 x367 >= 0 ;
+1 x29 -1 x367 >= 0 ;
-1 x19 -1 x29 +1 x367 >= -1 ;
+1 x19 -1 x368 >= 0 ;
+1 x30 -1 x368 >= 0 ;
-1 x19 -1 x30 +1 x368 >= -1 ;
+1 x20 -1 x369 >= 0 ;
+1 x29 -1 x369 >= 0 ;
-1 x20 -1 x29 +1 x369 >= -1 ;
+1 x20 -1 x370 >= 0 ;
+1 x30 -1 x370 >= 0 ;
-1 x20 -1 x30 +1 x370 >= -1 ;
+1 x21 -1 x371 >= 0 ;
+1 x1 -1 x371 >= 0 ;
-1 x21 -1 x1 +1 x371 >= -1 ;
+1 x21 -1 x372 >= 0 ;
+1 x2 -1 x372 >= 0 ;
-1 x21 -1 x2 +1 x372 >= -1 ;
+1 x22 -1 x373 >= 0 ;
+1 x1 -1 x373 >= 0 ;
-1 x22 -1 x1 +1 x373 >= -1 ;
+1 x22 -1 x374 >= 0 ;
+1 x2 -1 x374 >= 0 ;
-1 x22 -1 x2 +1 x374 >= -1 ;
+1 x23 -1 x375 >= 0 ;
+1 x3 -1 x375 >= 0 ;
-1 x23 -1 x3 +1 x375 >= -1 ;
+1 x23 -1 x376 >= 0 ;
+1 x4 -1 x376 >= 0 ;
-1 x23 -1 x4 +1 x376 >= -1 ;
+1 x24 -1 x377 >= 0 ;
+1 x3 -1 x377 >= 0 ;
-1 x24 -1 x3 +1 x377 >= -1 ;
+1 x24 -1 x378 >= 0 ;
+1 x4 -1 x378 >= 0 ;
-1 x24 -1 x4 +1 x378 >= -1 ;
+1 x25 -1 x379 >= 0 ;
+1 x5 -1 x379 >= 0 ;
-1 x25 -1 x5 +1 x379 >= -1 ;
+1 x25 -1 x380 >= 0 ;
+1 x6 -1 x380 >= 0 ;
-1 x25 -1 x6 +1 x380 >= -1 ;
+1 x26 -1 x381 >= 0 ;
+1 x5 -1 x381 >= 0 ;
-1 x26 -1 x5 +1 x381 >= -1 ;
+1 x26 -1 x382 >= 0 ;
+1 x6 -1 x382 >= 0 ;
-1 x26 -1 x6 +1 x382 >= -1 ;
+1 x27 -1 x383 >= 0 ;
+1 x7 -1 x383 >= 0 ;
-1 x27 -1 x7 +1 x383 >= -1 ;
+1 x27 -1 x384 >= 0 ;
+1 x8 -1 x384 >= 0 ;
-1 x27 -1 x8 +1 x384 >= -1 ;
+1 x28 -1 x385 >= 0 ;
+1 x7 -1 x385 >= 0 ;
-1 x28 -1 x7 +1 x385 >= -1 ;
+1 x28 -1 x386 >= 0 ;
+1 x8 -1 x386 >= 0 ;
-1 x28 -1 x8 +1 x386 >= -1 ;
+1 x29 -1 x387 >= 0 ;
+1 x9 -1 x387 >= 0 ;
-1 x29 -1 x9 +1 x387 >= -1 ;
+1 x29 -1 x388 >= 0 ;
+1 x10 -1 x388 >= 0 ;
-1 x29 -1 x10 +1 x388 >= -1 ;
+1 x30 -1 x389 >= 0 ;
+1 x9 -1 x389 >= 0 ;
-1 x30 -1 x9 +1 x389 >= -1 ;
+1 x30 -1 x390 >= 0 ;
+1 x10 -1 x390 >= 0 ;
-1 x30 -1 x10 +1 x390 >= -1 ;
+1 x1 -1 x391 >= 0 ;
+1 x13 -1 x391 >= 0 ;
-1 x1 -1 x13 +1 x391 >= -1 ;
+1 x1 -1 x392 >= 0 ;
+1 x14 -1 x392 >= 0 ;
-1 x1 -1 x14 +1 x392 >= -1 ;
+1 x2 -1 x393 >= 0 ;
+1 x13 -1 x393 >= 0 ;
-1 x2 -1 x13 +1 x393 >= -1 ;
+1 x2 -1 x394 >= 0 ;
+1 x14 -1 x394 >= 0 ;
-1 x2 -1 x14 +1 x394 >= -1 ;
+1 x3 -1 x395 >= 0 ;
+1 x15 -1 x395 >= 0 ;
-1 x3 -1 x15 +1 x395 >= -1 ;
+1 x3 -1 x396 >= 0 ;
+1 x16 -1 x396 >= 0 ;
-1 x3 -1 x16 +1 x396 >= -1 ;
+1 x4 -1 x397 >= 0 ;
+1 x15 -1 x397 >= 0 ;
-1 x4 -1 x15 +1 x397 >= -1 ;
+1 x4 -1 x398 >= 0 ;
+1 x16 -1 x398 >= 0 ;
-1 x4 -1 x16 +1 x398 >= -1 ;
+1 x5 -1 x399 >= 0 ;
+1 x17 -1 x399 >= 0 ;
-1 x5 -1 x17 +1 x399 >= -1 ;
+1 x5 -1 x400 >= 0 ;
+1 x18 -1 x400 >= 0 ;
-1 x5 -1 x18 +1 x400 >= -1 ;
+1 x6 -1 x401 >= 0 ;
+1 x17 -1 x401 >= 0 ;
-1 x6 -1 x17 +1 x401 >= -1 ;
+1 x6 -1 x402 >= 0 ;
+1 x18 -1 x402 >= 0 ;
-1 x6 -1 x18 +1 x402 >= -1 ;
+1 x7 -1 x403 >= 0 ;
+1 x19 -1 x403 >= 0 ;
-1 x7 -1 x19 +1 x403 >= -1 ;
+1 x7 -1 x404 >= 0 ;
+1 x20 -1 x404 >= 0 ;
-1 x7 -1 x20 +1 x404 >= -1 ;
+1 x8 -1 x405 >= 0 ;
+1 x19 -1 x405 >= 0 ;
-1 x8 -1 x19 +1 x405 >= -1 ;
+1 x8 -1 x406 >= 0 ;
+1 x20 -1 x406 >= 0 ;
-1 x8 -1 x20 +1 x406 >= -1 ;
+1 x9 -1 x407 >= 0 ;
+1 x21 -1 x407 >= 0 ;
-1 x9 -1 x21 +1 x407 >= -1 ;
+1 x9 -1 x408 >= 0 ;
+1 x22 -1 x408 >= 0 ;
-1 x9 -1 x22 +1 x408 >= -1 ;
+1 x10 -1 x409 >= 0 ;
+1 x21 -1 x409 >= 0 ;
-1 x10 -1 x21 +1 x409 >= -1 ;
+1 x10 -1 x410 >= 0 ;
+1 x22 -1 x410 >= 0 ;
-1 x10 -1 x22 +1 x410 >= -1 ;
+1 x11 -1 x411 >= 0 ;
+1 x23 -1 x411 >= 0 ;
-1 x11 -1 x23 +1 x411 >= -1 ;
+1 x11 -1 x412 >= 0 ;
+1 x24 -1 x412 >= 0 ;
-1 x11 -1 x24 +1 x412 >= -1 ;
+1 x12 -1 x413 >= 0 ;
+1 x23 -1 x413 >= 0 ;
-1 x12 -1 x23 +1 x413 >= -1 ;
+1 x12 -1 x414 >= 0 ;
+1 x24 -1 x414 >= 0 ;
-1 x12 -1 x24 +1 x414 >= -1 ;
+1 x13 -1 x415 >= 0 ;
+1 x25 -1 x415 >= 0 ;
-1 x13 -1 x25 +1 x415 >= -1 ;
+1 x13 -1 x416 >= 0 ;
+1 x26 -1 x416 >= 0 ;
-1 x13 -1 x26 +1 x416 >= -1 ;
+1 x14 -1 x417 >= 0 ;
+1 x25 -1 x417 >= 0 ;
-1 x14 -1 x25 +1 x417 >= -1 ;
+1 x14 -1 x418 >= 0 ;
+1 x26 -1 x418 >= 0 ;
-1 x14 -1 x26 +1 x418 >= -1 ;
+1 x15 -1 x419 >= 0 ;
+1 x27 -1 x419 >= 0 ;
-1 x15 -1 x27 +1 x419 >= -1 ;
+1 x15 -1 x420 >= 0 ;
+1 x28 -1 x420 >= 0 ;
-1 x15 -1 x28 +1 x420 >= -1 ;
+1 x16 -1 x421 >= 0 ;
+1 x27 -1 x421 >= 0 ;
-1 x16 -1 x27 +1 x421 >= -1 ;
+1 x16 -1 x422 >= 0 ;
+1 x28 -1 x422 >= 0 ;
-1 x16 -1 x28 +1 x422 >= -1 ;
+1 x17 -1 x423 >= 0 ;
+1 x29 -1 x423 >= 0 ;
-1 x17 -1 x29 +1 x423 >= -1 ;
+1 x17 -1 x424 >= 0 ;
+1 x30 -1 x424 >= 0 ;
-1 x17 -1 x30 +1 x424 >= -1 ;
+1 x18 -1 x425 >= 0 ;
+1 x29 -1 x425 >= 0 ;
-1 x18 -1 x29 +1 x425 >= -1 ;
+1 x18 -1 x426 >= 0 ;
+1 x30 -1 x426 >= 0 ;
-1 x18 -1 x30 +1 x426 >= -1 ;
+1 x19 -1 x427 >= 0 ;
+1 x1 -1 x427 >= 0 ;
-1 x19 -1 x1 +1 x427 >= -1 ;
+1 x19 -1 x428 >= 0 ;
+1 x2 -1 x428 >= 0 ;
-1 x19 -1 x2 +1 x428 >= -1 ;
+1 x20 -1 x429 >= 0 ;
+1 x1 -1 x429 >= 0 ;
-1 x20 -1 x1 +1 x429 >= -1 ;
+1 x20 -1 x430 >= 0 ;
+1 x2 -1 x430 >= 0 ;
-1 x20 -1 x2 +1 x430 >= -1 ;
+1 x21 -1 x431 >= 0 ;
+1 x3 -1 x431 >= 0 ;
-1 x21 -1 x3 +1 x431 >= -1 ;
+1 x21 -1 x432 >= 0 ;
+1 x4 -1 x432 >= 0 ;
-1 x21 -1 x4 +1 x432 >= -1 ;
+1 x22 -1 x433 >= 0 ;
+1 x3 -1 x433 >= 0 ;
-1 x22 -1 x3 +1 x433 >= -1 ;
+1 x22 -1 x434 >= 0 ;
+1 x4 -1 x434 >= 0 ;
-1 x22 -1 x4 +1 x434 >= -1 ;
+1 x23 -1 x435 >= 0 ;
+1 x5 -1 x435 >= 0 ;
-1 x23 -1 x5 +1 x435 >= -1 ;
+1 x23 -1 x436 >= 0 ;
+1 x6 -1 x436 >= 0 ;
-1 x23 -1 x6 +1 x436 >= -1 ;
+1 x24 -1 x437 >= 0 ;
+1 x5 -1 x437 >= 0 ;
-1 x24 -1 x5 +1 x437 >= -1 ;
+1 x24 -1 x438 >= 0 ;
+1 x6 -1 x438 >= 0 ;
-1 x24 -1 x6 +1 x438 >= -1 ;
+1 x25 -1 x439 >= 0 ;
+1 x7 -1 x439 >= 0 ;
-1 x25 -1 x7 +1 x439 >= -1 ;
+1 x25 -1 x440 >= 0 ;
+1 x8 -1 x440 >= 0 ;
-1 x25 -1 x8 +1 x440 >= -1 ;
+1 x26 -1 x441 >= 0 ;
+1 x7 -1 x441 >= 0 ;
-1 x26 -1 x7 +1 x441 >= -1 ;
+1 x26 -1 x442 >= 0 ;
+1 x8 -1 x442 >= 0 ;
-1 x26 -1 x8 +1 x442 >= -1 ;
+1 x27 -1 x443 >= 0 ;
+1 x9 -1 x443 >= 0 ;
-1 x27 -1 x9 +1 x443 >= -1 ;
+1 x27 -1 x444 >= 0 ;
+1 x10 -1 x444 >= 0 ;
-1 x27 -1 x10 +1 x444 >= -1 ;
+1 x28 -1 x445 >= 0 ;
+1 x9 -1 x445 >= 0 ;
-1 x28 -1 x9 +1 x445 >= -1 ;
+1 x28 -1 x446 >= 0 ;
+1 x10 -1 x446 >= 0 ;
-1 x28 -1 x10 +1 x446 >= -1 ;
+1 x29 -1 x447 >= 0 ;
+1 x11 -1 x447 >= 0 ;
-1 x29 -1 x11 +1 x447 >= -1 ;
+1 x29 -1 x448 >= 0 ;
+1 x12 -1 x448 >= 0 ;
-1 x29 -1 x12 +1 x448 >= -1 ;
+1 x30 -1 x449 >= 0 ;
+1 x11 -1 x449 >= 0 ;
-1 x30 -1 x11 +1 x449 >= -1 ;
+1 x30 -1 x450 >= 0 ;
+1 x12 -1 x450 >= 0 ;
-1 x30 -1 x12 +1 x450 >= -1 ;
+1 x1 -1 x451 >= 0 ;
+1 x15 -1 x451 >= 0 ;
-1 x1 -1 x15 +1 x451 >= -1 ;
+1 x1 -1 x452 >= 0 ;
+1 x16 -1 x452 >= 0 ;
-1 x1 -1 x16 +1 x452 >= -1 ;
+1 x2 -1 x453 >= 0 ;
+1 x15 -1 x453 >= 0 ;
-1 x2 -1 x15 +1 x453 >= -1 ;
+1 x2 -1 x454 >= 0 ;
+1 x16 -1 x454 >= 0 ;
-1 x2 -1 x16 +1 x454 >= -1 ;
+1 x3 -1 x455 >= 0 ;
+1 x17 -1 x455 >= 0 ;
-1 x3 -1 x17 +1 x455 >= -1 ;
+1 x3 -1 x456 >= 0 ;
+1 x18 -1 x456 >= 0 ;
-1 x3 -1 x18 +1 x456 >= -1 ;
+1 x4 -1 x457 >= 0 ;
+1 x17 -1 x457 >= 0 ;
-1 x4 -1 x17 +1 x457 >= -1 ;
+1 x4 -1 x458 >= 0 ;
+1 x18 -1 x458 >= 0 ;
-1 x4 -1 x18 +1 x458 >= -1 ;
+1 x5 -1 x459 >= 0 ;
+1 x19 -1 x459 >= 0 ;
-1 x5 -1 x19 +1 x459 >= -1 ;
+1 x5 -1 x460 >= 0 ;
+1 x20 -1 x460 >= 0 ;
-1 x5 -1 x20 +1 x460 >= -1 ;
+1 x6 -1 x461 >= 0 ;
+1 x19 -1 x461 >= 0 ;
-1 x6 -1 x19 +1 x461 >= -1 ;
+1 x6 -1 x462 >= 0 ;
+1 x20 -1 x462 >= 0 ;
-1 x6 -1 x20 +1 x462 >= -1 ;
+1 x7 -1 x463 >= 0 ;
+1 x21 -1 x463 >= 0 ;
-1 x7 -1 x21 +1 x463 >= -1 ;
+1 x7 -1 x464 >= 0 ;
+1 x22 -1 x464 >= 0 ;
-1 x7 -1 x22 +1 x464 >= -1 ;
+1 x8 -1 x465 >= 0 ;
+1 x21 -1 x465 >= 0 ;
-1 x8 -1 x21 +1 x465 >= -1 ;
+1 x8 -1 x466 >= 0 ;
+1 x22 -1 x466 >= 0 ;
-1 x8 -1 x22 +1 x466 >= -1 ;
+1 x9 -1 x467 >= 0 ;
+1 x23 -1 x467 >= 0 ;
-1 x9 -1 x23 +1 x467 >= -1 ;
+1 x9 -1 x468 >= 0 ;
+1 x24 -1 x468 >= 0 ;
-1 x9 -1 x24 +1 x468 >= -1 ;
+1 x10 -1 x469 >= 0 ;
+1 x23 -1 x469 >= 0 ;
-1 x10 -1 x23 +1 x469 >= -1 ;
+1 x10 -1 x470 >= 0 ;
+1 x24 -1 x470 >= 0 ;
-1 x10 -1 x24 +1 x470 >= -1 ;
+1 x11 -1 x471 >= 0 ;
+1 x25 -1 x471 >= 0 ;
-1 x11 -1 x25 +1 x471 >= -1 ;
+1 x11 -1 x472 >= 0 ;
+1 x26 -1 x472 >= 0 ;
-1 x11 -1 x26 +1 x472 >= -1 ;
+1 x12 -1 x473 >= 0 ;
+1 x25 -1 x473 >= 0 ;
-1 x12 -1 x25 +1 x473 >= -1 ;
+1 x12 -1 x474 >= 0 ;
+1 x26 -1 x474 >= 0 ;
-1 x12 -1 x26 +1 x474 >= -1 ;
+1 x13 -1 x475 >= 0 ;
+1 x27 -1 x475 >= 0 ;
-1 x13 -1 x27 +1 x475 >= -1 ;
+1 x13 -1 x476 >= 0 ;
+1 x28 -1 x476 >= 0 ;
-1 x13 -1 x28 +1 x476 >= -1 ;
+1 x14 -1 x477 >= 0 ;
+1 x27 -1 x477 >= 0 ;
-1 x14 -1 x27 +1 x477 >= -1 ;
+1 x14 -1 x478 >= 0 ;
+1 x28 -1 x478 >= 0 ;
-1 x14 -1 x28 +1 x478 >= -1 ;
+1 x15 -1 x479 >= 0 ;
+1 x29 -1 x479 >= 0 ;
-1 x15 -1 x29 +1 x479 >= -1 ;
+1 x15 -1 x480 >= 0 ;
+1 x30 -1 x480 >= 0 ;
-1 x15 -1 x30 +1 x480 >= -1 ;
+1 x16 -1 x481 >= 0 ;
+1 x29 -1 x481 >= 0 ;
-1 x16 -1 x29 +1 x481 >= -1 ;
+1 x16 -1 x482 >= 0 ;
+1 x30 -1 x482 >= 0 ;
-1 x16 -1 x30 +1 x482 >= -1 ;
+1 x17 -1 x483 >= 0 ;
+1 x1 -1 x483 >= 0 ;
-1 x17 -1 x1 +1 x483 >= -1 ;
+1 x17 -1 x484 >= 0 ;
+1 x2 -1 x484 >= 0 ;
-1 x17 -1 x2 +1 x484 >= -1 ;
+1 x18 -1 x485 >= 0 ;
+1 x1 -1 x485 >= 0 ;
-1 x18 -1 x1 +1 x485 >= -1 ;
+1 x18 -1 x486 >= 0 ;
+1 x2 -1 x486 >= 0 ;
-1 x18 -1 x2 +1 x486 >= -1 ;
+1 x19 -1 x487 >= 0 ;
+1 x3 -1 x487 >= 0 ;
-1 x19 -1 x3 +1 x487 >= -1 ;
+1 x19 -1 x488 >= 0 ;
+1 x4 -1 x488 >= 0 ;
-1 x19 -1 x4 +1 x488 >= -1 ;
+1 x20 -1 x489 >= 0 ;
+1 x3 -1 x489 >= 0 ;
-1 x20 -1 x3 +1 x489 >= -1 ;
+1 x20 -1 x490 >= 0 ;
+1 x4 -1 x490 >= 0 ;
-1 x20 -1 x4 +1 x490 >= -1 ;
+1 x21 -1 x491 >= 0 ;
+1 x5 -1 x491 >= 0 ;
-1 x21 -1 x5 +1 x491 >= -1 ;
+1 x21 -1 x492 >= 0 ;
+1 x6 -1 x492 >= 0 ;
-1 x21 -1 x6 +1 x492 >= -1 ;
+1 x22 -1 x493 >= 0 ;
+1 x5 -1 x493 >= 0 ;
-1 x22 -1 x5 +1 x493 >= -1 ;
+1 x22 -1 x494 >= 0 ;
+1 x6 -1 x494 >= 0 ;
-1 x22 -1 x6 +1 x494 >= -1 ;
+1 x23 -1 x495 >= 0 ;
+1 x7 -1 x495 >= 0 ;
-1 x23 -1 x7 +1 x495 >= -1 ;
+1 x23 -1 x496 >= 0 ;
+1 x8 -1 x496 >= 0 ;
-1 x23 -1 x8 +1 x496 >= -1 ;
+1 x24 -1 x497 >= 0 ;
+1 x7 -1 x497 >= 0 ;
-1 x24 -1 x7 +1 x497 >= -1 ;
+1 x24 -1 x498 >= 0 ;
+1 x8 -1 x498 >= 0 ;
-1 x24 -1 x8 +1 x498 >= -1 ;
+1 x25 -1 x499 >= 0 ;
+1 x9 -1 x499 >= 0 ;
-1 x25 -1 x9 +1 x499 >= -1 ;
+1 x25 -1 x500 >= 0 ;
+1 x10 -1 x500 >= 0 ;
-1 x25 -1 x10 +1 x500 >= -1 ;
+1 x26 -1 x501 >= 0 ;
+1 x9 -1 x501 >= 0 ;
-1 x26 -1 x9 +1 x501 >= -1 ;
+1 x26 -1 x502 >= 0 ;
+1 x10 -1 x502 >= 0 ;
-1 x26 -1 x10 +1 x502 >= -1 ;
+1 x27 -1 x503 >= 0 ;
+1 x11 -1 x503 >= 0 ;
-1 x27 -1 x11 +1 x503 >= -1 ;
+1 x27 -1 x504 >= 0 ;
+1 x12 -1 x504 >= 0 ;
-1 x27 -1 x12 +1 x504 >= -1 ;
+1 x28 -1 x505 >= 0 ;
+1 x11 -1 x505 >= 0 ;
-1 x28 -1 x11 +1 x505 >= -1 ;
+1 x28 -1 x506 >= 0 ;
+1 x12 -1 x506 >= 0 ;
-1 x28 -1 x12 +1 x506 >= -1 ;
+1 x29 -1 x507 >= 0 ;
+1 x13 -1 x507 >= 0 ;
-1 x29 -1 x13 +1 x507 >= -1 ;
+1 x29 -1 x508 >= 0 ;
+1 x14 -1 x508 >= 0 ;
-1 x29 -1 x14 +1 x508 >= -1 ;
+1 x30 -1 x509 >= 0 ;
+1 x13 -1 x509 >= 0 ;
-1 x30 -1 x13 +1 x509 >= -1 ;
+1 x30 -1 x510 >= 0 ;
+1 x14 -1 x510 >= 0 ;
-1 x30 -1 x14 +1 x510 >= -1 ;
+1 x31 -1 x511 >= 0 ;
+1 x33 -1 x511 >= 0 ;
-1 x31 -1 x33 +1 x511 >= -1 ;
+1 x31 -1 x512 >= 0 ;
+1 x34 -1 x512 >= 0 ;
-1 x31 -1 x34 +1 x512 >= -1 ;
+1 x32 -1 x513 >= 0 ;
+1 x33 -1 x513 >= 0 ;
-1 x32 -1 x33 +1 x513 >= -1 ;
+1 x32 -1 x514 >= 0 ;
+1 x34 -1 x514 >= 0 ;
-1 x32 -1 x34 +1 x514 >= -1 ;
+1 x33 -1 x515 >= 0 ;
+1 x35 -1 x515 >= 0 ;
-1 x33 -1 x35 +1 x515 >= -1 ;
+1 x33 -1 x516 >= 0 ;
+1 x36 -1 x516 >= 0 ;
-1 x33 -1 x36 +1 x516 >= -1 ;
+1 x34 -1 x517 >= 0 ;
+1 x35 -1 x517 >= 0 ;
-1 x34 -1 x35 +1 x517 >= -1 ;
+1 x34 -1 x518 >= 0 ;
+1 x36 -1 x518 >= 0 ;
-1 x34 -1 x36 +1 x518 >= -1 ;
+1 x35 -1 x519 >= 0 ;
+1 x37 -1 x519 >= 0 ;
-1 x35 -1 x37 +1 x519 >= -1 ;
+1 x35 -1 x520 >= 0 ;
+1 x38 -1 x520 >= 0 ;
-1 x35 -1 x38 +1 x520 >= -1 ;
+1 x36 -1 x521 >= 0 ;
+1 x37 -1 x521 >= 0 ;
-1 x36 -1 x37 +1 x521 >= -1 ;
+1 x36 -1 x522 >= 0 ;
+1 x38 -1 x522 >= 0 ;
-1 x36 -1 x38 +1 x522 >= -1 ;
+1 x37 -1 x523 >= 0 ;
+1 x39 -1 x523 >= 0 ;
-1 x37 -1 x39 +1 x523 >= -1 ;
+1 x37 -1 x524 >= 0 ;
+1 x40 -1 x524 >= 0 ;
-1 x37 -1 x40 +1 x524 >= -1 ;
+1 x38 -1 x525 >= 0 ;
+1 x39 -1 x525 >= 0 ;
-1 x38 -1 x39 +1 x525 >= -1 ;
+1 x38 -1 x526 >= 0 ;
+1 x40 -1 x526 >= 0 ;
-1 x38 -1 x40 +1 x526 >= -1 ;
+1 x39 -1 x527 >= 0 ;
+1 x41 -1 x527 >= 0 ;
-1 x39 -1 x41 +1 x527 >= -1 ;
+1 x39 -1 x528 >= 0 ;
+1 x42 -1 x528 >= 0 ;
-1 x39 -1 x42 +1 x528 >= -1 ;
+1 x40 -1 x529 >= 0 ;
+1 x41 -1 x529 >= 0 ;
-1 x40 -1 x41 +1 x529 >= -1 ;
+1 x40 -1 x530 >= 0 ;
+1 x42 -1 x530 >= 0 ;
-1 x40 -1 x42 +1 x530 >= -1 ;
+1 x41 -1 x531 >= 0 ;
+1 x43 -1 x531 >= 0 ;
-1 x41 -1 x43 +1 x531 >= -1 ;
+1 x41 -1 x532 >= 0 ;
+1 x44 -1 x532 >= 0 ;
-1 x41 -1 x44 +1 x532 >= -1 ;
+1 x42 -1 x533 >= 0 ;
+1 x43 -1 x533 >= 0 ;
-1 x42 -1 x43 +1 x533 >= -1 ;
+1 x42 -1 x534 >= 0 ;
+1 x44 -1 x534 >= 0 ;
-1 x42 -1 x44 +1 x534 >= -1 ;
+1 x43 -1 x535 >= 0 ;
+1 x45 -1 x535 >= 0 ;
-1 x43 -1 x45 +1 x535 >= -1 ;
+1 x43 -1 x536 >= 0 ;
+1 x46 -1 x536 >= 0 ;
-1 x43 -1 x46 +1 x536 >= -1 ;
+1 x44 -1 x537 >= 0 ;
+1 x45 -1 x537 >= 0 ;
-1 x44 -1 x45 +1 x537 >= -1 ;
+1 x44 -1 x538 >= 0 ;
+1 x46 -1 x538 >= 0 ;
-1 x44 -1 x46 +1 x538 >= -1 ;
+1 x45 -1 x539 >= 0 ;
+1 x47 -1 x539 >= 0 ;
-1 x45 -1 x47 +1 x539 >= -1 ;
+1 x45 -1 x540 >= 0 ;
+1 x48 -1 x540 >= 0 ;
-1 x45 -1 x48 +1 x540 >= -1 ;
+1 x46 -1 x541 >= 0 ;
+1 x47 -1 x541 >= 0 ;
-1 x46 -1 x47 +1 x541 >= -1 ;
+1 x46 -1 x542 >= 0 ;
+1 x48 -1 x542 >= 0 ;
-1 x46 -1 x48 +1 x542 >= -1 ;
+1 x47 -1 x543 >= 0 ;
+1 x49 -1 x543 >= 0 ;
-1 x47 -1 x49 +1 x543 >= -1 ;
+1 x47 -1 x544 >= 0 ;
+1 x50 -1 x544 >= 0 ;
-1 x47 -1 x50 +1 x544 >= -1 ;
+1 x48 -1 x545 >= 0 ;
+1 x49 -1 x545 >= 0 ;
-1 x48 -1 x49 +1 x545 >= -1 ;
+1 x48 -1 x546 >= 0 ;
+1 x50 -1 x546 >= 0 ;
-1 x48 -1 x50 +1 x546 >= -1 ;
+1 x49 -1 x547 >= 0 ;
+1 x51 -1 x547 >= 0 ;
-1 x49 -1 x51 +1 x547 >= -1 ;
+1 x49 -1 x548 >= 0 ;
+1 x52 -1 x548 >= 0 ;
-1 x49 -1 x52 +1 x548 >= -1 ;
+1 x50 -1 x549 >= 0 ;
+1 x51 -1 x549 >= 0 ;
-1 x50 -1 x51 +1 x549 >= -1 ;
+1 x50 -1 x550 >= 0 ;
+1 x52 -1 x550 >= 0 ;
-1 x50 -1 x52 +1 x550 >= -1 ;
+1 x51 -1 x551 >= 0 ;
+1 x53 -1 x551 >= 0 ;
-1 x51 -1 x53 +1 x551 >= -1 ;
+1 x51 -1 x552 >= 0 ;
+1 x54 -1 x552 >= 0 ;
-1 x51 -1 x54 +1 x552 >= -1 ;
+1 x52 -1 x553 >= 0 ;
+1 x53 -1 x553 >= 0 ;
-1 x52 -1 x53 +1 x553 >= -1 ;
+1 x52 -1 x554 >= 0 ;
+1 x54 -1 x554 >= 0 ;
-1 x52 -1 x54 +1 x554 >= -1 ;
+1 x53 -1 x555 >= 0 ;
+1 x55 -1 x555 >= 0 ;
-1 x53 -1 x55 +1 x555 >= -1 ;
+1 x53 -1 x556 >= 0 ;
+1 x56 -1 x556 >= 0 ;
-1 x53 -1 x56 +1 x556 >= -1 ;
+1 x54 -1 x557 >= 0 ;
+1 x55 -1 x557 >= 0 ;
-1 x54 -1 x55 +1 x557 >= -1 ;
+1 x54 -1 x558 >= 0 ;
+1 x56 -1 x558 >= 0 ;
-1 x54 -1 x56 +1 x558 >= -1 ;
+1 x55 -1 x559 >= 0 ;
+1 x57 -1 x559 >= 0 ;
-1 x55 -1 x57 +1 x559 >= -1 ;
+1 x55 -1 x560 >= 0 ;
+1 x58 -1 x560 >= 0 ;
-1 x55 -1 x58 +1 x560 >= -1 ;
+1 x56 -1 x561 >= 0 ;
+1 x57 -1 x561 >= 0 ;
-1 x56 -1 x57 +1 x561 >= -1 ;
+1 x56 -1 x562 >= 0 ;
+1 x58 -1 x562 >= 0 ;
-1 x56 -1 x58 +1 x562 >= -1 ;
+1 x57 -1 x563 >= 0 ;
+1 x59 -1 x563 >= 0 ;
-1 x57 -1 x59 +1 x563 >= -1 ;
+1 x57 -1 x564 >= 0 ;
+1 x60 -1 x564 >= 0 ;
-1 x57 -1 x60 +1 x564 >= -1 ;
+1 x58 -1 x565 >= 0 ;
+1 x59 -1 x565 >= 0 ;
-1 x58 -1 x59 +1 x565 >= -1 ;
+1 x58 -1 x566 >= 0 ;
+1 x60 -1 x566 >= 0 ;
-1 x58 -1 x60 +1 x566 >= -1 ;
+1 x59 -1 x567 >= 0 ;
+1 x31 -1 x567 >= 0 ;
-1 x59 -1 x31 +1 x567 >= -1 ;
+1 x59 -1 x568 >= 0 ;
+1 x32 -1 x568 >= 0 ;
-1 x59 -1 x32 +1 x568 >= -1 ;
+1 x60 -1 x569 >= 0 ;
+1 x31 -1 x569 >= 0 ;
-1 x60 -1 x31 +1 x569 >= -1 ;
+1 x60 -1 x570 >= 0 ;
+1 x32 -1 x570 >= 0 ;
-1 x60 -1 x32 +1 x570 >= -1 ;
+1 x31 -1 x571 >= 0 ;
+1 x35 -1 x571 >= 0 ;
-1 x31 -1 x35 +1 x571 >= -1 ;
+1 x31 -1 x572 >= 0 ;
+1 x36 -1 x572 >= 0 ;
-1 x31 -1 x36 +1 x572 >= -1 ;
+1 x32 -1 x573 >= 0 ;
+1 x35 -1 x573 >= 0 ;
-1 x32 -1 x35 +1 x573 >= -1 ;
+1 x32 -1 x574 >= 0 ;
+1 x36 -1 x574 >= 0 ;
-1 x32 -1 x36 +1 x574 >= -1 ;
+1 x33 -1 x575 >= 0 ;
+1 x37 -1 x575 >= 0 ;
-1 x33 -1 x37 +1 x575 >= -1 ;
+1 x33 -1 x576 >= 0 ;
+1 x38 -1 x576 >= 0 ;
-1 x33 -1 x38 +1 x576 >= -1 ;
+1 x34 -1 x577 >= 0 ;
+1 x37 -1 x577 >= 0 ;
-1 x34 -1 x37 +1 x577 >= -1 ;
+1 x34 -1 x578 >= 0 ;
+1 x38 -1 x578 >= 0 ;
-1 x34 -1 x38 +1 x578 >= -1 ;
+1 x35 -1 x579 >= 0 ;
+1 x39 -1 x579 >= 0 ;
-1 x35 -1 x39 +1 x579 >= -1 ;
+1 x35 -1 x580 >= 0 ;
+1 x40 -1 x580 >= 0 ;
-1 x35 -1 x40 +1 x580 >= -1 ;
+1 x36 -1 x581 >= 0 ;
+1 x39 -1 x581 >= 0 ;
-1 x36 -1 x39 +1 x581 >= -1 ;
+1 x36 -1 x582 >= 0 ;
+1 x40 -1 x582 >= 0 ;
-1 x36 -1 x40 +1 x582 >= -1 ;
+1 x37 -1 x583 >= 0 ;
+1 x41 -1 x583 >= 0 ;
-1 x37 -1 x41 +1 x583 >= -1 ;
+1 x37 -1 x584 >= 0 ;
+1 x42 -1 x584 >= 0 ;
-1 x37 -1 x42 +1 x584 >= -1 ;
+1 x38 -1 x585 >= 0 ;
+1 x41 -1 x585 >= 0 ;
-1 x38 -1 x41 +1 x585 >= -1 ;
+1 x38 -1 x586 >= 0 ;
+1 x42 -1 x586 >= 0 ;
-1 x38 -1 x42 +1 x586 >= -1 ;
+1 x39 -1 x587 >= 0 ;
+1 x43 -1 x587 >= 0 ;
-1 x39 -1 x43 +1 x587 >= -1 ;
+1 x39 -1 x588 >= 0 ;
+1 x44 -1 x588 >= 0 ;
-1 x39 -1 x44 +1 x588 >= -1 ;
+1 x40 -1 x589 >= 0 ;
+1 x43 -1 x589 >= 0 ;
-1 x40 -1 x43 +1 x589 >= -1 ;
+1 x40 -1 x590 >= 0 ;
+1 x44 -1 x590 >= 0 ;
-1 x40 -1 x44 +1 x590 >= -1 ;
+1 x41 -1 x591 >= 0 ;
+1 x45 -1 x591 >= 0 ;
-1 x41 -1 x45 +1 x591 >= -1 ;
+1 x41 -1 x592 >= 0 ;
+1 x46 -1 x592 >= 0 ;
-1 x41 -1 x46 +1 x592 >= -1 ;
+1 x42 -1 x593 >= 0 ;
+1 x45 -1 x593 >= 0 ;
-1 x42 -1 x45 +1 x593 >= -1 ;
+1 x42 -1 x594 >= 0 ;
+1 x46 -1 x594 >= 0 ;
-1 x42 -1 x46 +1 x594 >= -1 ;
+1 x43 -1 x595 >= 0 ;
+1 x47 -1 x595 >= 0 ;
-1 x43 -1 x47 +1 x595 >= -1 ;
+1 x43 -1 x596 >= 0 ;
+1 x48 -1 x596 >= 0 ;
-1 x43 -1 x48 +1 x596 >= -1 ;
+1 x44 -1 x597 >= 0 ;
+1 x47 -1 x597 >= 0 ;
-1 x44 -1 x47 +1 x597 >= -1 ;
+1 x44 -1 x598 >= 0 ;
+1 x48 -1 x598 >= 0 ;
-1 x44 -1 x48 +1 x598 >= -1 ;
+1 x45 -1 x599 >= 0 ;
+1 x49 -1 x599 >= 0 ;
-1 x45 -1 x49 +1 x599 >= -1 ;
+1 x45 -1 x600 >= 0 ;
+1 x50 -1 x600 >= 0 ;
-1 x45 -1 x50 +1 x600 >= -1 ;
+1 x46 -1 x601 >= 0 ;
+1 x49 -1 x601 >= 0 ;
-1 x46 -1 x49 +1 x601 >= -1 ;
+1 x46 -1 x602 >= 0 ;
+1 x50 -1 x602 >= 0 ;
-1 x46 -1 x50 +1 x602 >= -1 ;
+1 x47 -1 x603 >= 0 ;
+1 x51 -1 x603 >= 0 ;
-1 x47 -1 x51 +1 x603 >= -1 ;
+1 x47 -1 x604 >= 0 ;
+1 x52 -1 x604 >= 0 ;
-1 x47 -1 x52 +1 x604 >= -1 ;
+1 x48 -1 x605 >= 0 ;
+1 x51 -1 x605 >= 0 ;
-1 x48 -1 x51 +1 x605 >= -1 ;
+1 x48 -1 x606 >= 0 ;
+1 x52 -1 x606 >= 0 ;
-1 x48 -1 x52 +1 x606 >= -1 ;
+1 x49 -1 x607 >= 0 ;
+1 x53 -1 x607 >= 0 ;
-1 x49 -1 x53 +1 x607 >= -1 ;
+1 x49 -1 x608 >= 0 ;
+1 x54 -1 x608 >= 0 ;
-1 x49 -1 x54 +1 x608 >= -1 ;
+1 x50 -1 x609 >= 0 ;
+1 x53 -1 x609 >= 0 ;
-1 x50 -1 x53 +1 x609 >= -1 ;
+1 x50 -1 x610 >= 0 ;
+1 x54 -1 x610 >= 0 ;
-1 x50 -1 x54 +1 x610 >= -1 ;
+1 x51 -1 x611 >= 0 ;
+1 x55 -1 x611 >= 0 ;
-1 x51 -1 x55 +1 x611 >= -1 ;
+1 x51 -1 x612 >= 0 ;
+1 x56 -1 x612 >= 0 ;
-1 x51 -1 x56 +1 x612 >= -1 ;
+1 x52 -1 x613 >= 0 ;
+1 x55 -1 x613 >= 0 ;
-1 x52 -1 x55 +1 x613 >= -1 ;
+1 x52 -1 x614 >= 0 ;
+1 x56 -1 x614 >= 0 ;
-1 x52 -1 x56 +1 x614 >= -1 ;
+1 x53 -1 x615 >= 0 ;
+1 x57 -1 x615 >= 0 ;
-1 x53 -1 x57 +1 x615 >= -1 ;
+1 x53 -1 x616 >= 0 ;
+1 x58 -1 x616 >= 0 ;
-1 x53 -1 x58 +1 x616 >= -1 ;
+1 x54 -1 x617 >= 0 ;
+1 x57 -1 x617 >= 0 ;
-1 x54 -1 x57 +1 x617 >= -1 ;
+1 x54 -1 x618 >= 0 ;
+1 x58 -1 x618 >= 0 ;
-1 x54 -1 x58 +1 x618 >= -1 ;
+1 x55 -1 x619 >= 0 ;
+1 x59 -1 x619 >= 0 ;
-1 x55 -1 x59 +1 x619 >= -1 ;
+1 x55 -1 x620 >= 0 ;
+1 x60 -1 x620 >= 0 ;
-1 x55 -1 x60 +1 x620 >= -1 ;
+1 x56 -1 x621 >= 0 ;
+1 x59 -1 x621 >= 0 ;
-1 x56 -1 x59 +1 x621 >= -1 ;
+1 x56 -1 x622 >= 0 ;
+1 x60 -1 x622 >= 0 ;
-1 x56 -1 x60 +1 x622 >= -1 ;
+1 x57 -1 x623 >= 0 ;
+1 x31 -1 x623 >= 0 ;
-1 x57 -1 x31 +1 x623 >= -1 ;
+1 x57 -1 x624 >= 0 ;
+1 x32 -1 x624 >= 0 ;
-1 x57 -1 x32 +1 x624 >= -1 ;
+1 x58 -1 x625 >= 0 ;
+1 x31 -1 x625 >= 0 ;
-1 x58 -1 x31 +1 x625 >= -1 ;
+1 x58 -1 x626 >= 0 ;
+1 x32 -1 x626 >= 0 ;
-1 x58 -1 x32 +1 x626 >= -1 ;
+1 x59 -1 x627 >= 0 ;
+1 x33 -1 x627 >= 0 ;
-1 x59 -1 x33 +1 x627 >= -1 ;
+1 x59 -1 x628 >= 0 ;
+1 x34 -1 x628 >= 0 ;
-1 x59 -1 x34 +1 x628 >= -1 ;
+1 x60 -1 x629 >= 0 ;
+1 x33 -1 x629 >= 0 ;
-1 x60 -1 x33 +1 x629 >= -1 ;
+1 x60 -1 x630 >= 0 ;
+1 x34 -1 x630 >= 0 ;
-1 x60 -1 x34 +1 x630 >= -1 ;
+1 x31 -1 x631 >= 0 ;
+1 x37 -1 x631 >= 0 ;
-1 x31 -1 x37 +1 x631 >= -1 ;
+1 x31 -1 x632 >= 0 ;
+1 x38 -1 x632 >= 0 ;
-1 x31 -1 x38 +1 x632 >= -1 ;
+1 x32 -1 x633 >= 0 ;
+1 x37 -1 x633 >= 0 ;
-1 x32 -1 x37 +1 x633 >= -1 ;
+1 x32 -1 x634 >= 0 ;
+1 x38 -1 x634 >= 0 ;
-1 x32 -1 x38 +1 x634 >= -1 ;
+1 x33 -1 x635 >= 0 ;
+1 x39 -1 x635 >= 0 ;
-1 x33 -1 x39 +1 x635 >= -1 ;
+1 x33 -1 x636 >= 0 ;
+1 x40 -1 x636 >= 0 ;
-1 x33 -1 x40 +1 x636 >= -1 ;
+1 x34 -1 x637 >= 0 ;
+1 x39 -1 x637 >= 0 ;
-1 x34 -1 x39 +1 x637 >= -1 ;
+1 x34 -1 x638 >= 0 ;
+1 x40 -1 x638 >= 0 ;
-1 x34 -1 x40 +1 x638 >= -1 ;
+1 x35 -1 x639 >= 0 ;
+1 x41 -1 x639 >= 0 ;
-1 x35 -1 x41 +1 x639 >= -1 ;
+1 x35 -1 x640 >= 0 ;
+1 x42 -1 x640 >= 0 ;
-1 x35 -1 x42 +1 x640 >= -1 ;
+1 x36 -1 x641 >= 0 ;
+1 x41 -1 x641 >= 0 ;
-1 x36 -1 x41 +1 x641 >= -1 ;
+1 x36 -1 x642 >= 0 ;
+1 x42 -1 x642 >= 0 ;
-1 x36 -1 x42 +1 x642 >= -1 ;
+1 x37 -1 x643 >= 0 ;
+1 x43 -1 x643 >= 0 ;
-1 x37 -1 x43 +1 x643 >= -1 ;
+1 x37 -1 x644 >= 0 ;
+1 x44 -1 x644 >= 0 ;
-1 x37 -1 x44 +1 x644 >= -1 ;
+1 x38 -1 x645 >= 0 ;
+1 x43 -1 x645 >= 0 ;
-1 x38 -1 x43 +1 x645 >= -1 ;
+1 x38 -1 x646 >= 0 ;
+1 x44 -1 x646 >= 0 ;
-1 x38 -1 x44 +1 x646 >= -1 ;
+1 x39 -1 x647 >= 0 ;
+1 x45 -1 x647 >= 0 ;
-1 x39 -1 x45 +1 x647 >= -1 ;
+1 x39 -1 x648 >= 0 ;
+1 x46 -1 x648 >= 0 ;
-1 x39 -1 x46 +1 x648 >= -1 ;
+1 x40 -1 x649 >= 0 ;
+1 x45 -1 x649 >= 0 ;
-1 x40 -1 x45 +1 x649 >= -1 ;
+1 x40 -1 x650 >= 0 ;
+1 x46 -1 x650 >= 0 ;
-1 x40 -1 x46 +1 x650 >= -1 ;
+1 x41 -1 x651 >= 0 ;
+1 x47 -1 x651 >= 0 ;
-1 x41 -1 x47 +1 x651 >= -1 ;
+1 x41 -1 x652 >= 0 ;
+1 x48 -1 x652 >= 0 ;
-1 x41 -1 x48 +1 x652 >= -1 ;
+1 x42 -1 x653 >= 0 ;
+1 x47 -1 x653 >= 0 ;
-1 x42 -1 x47 +1 x653 >= -1 ;
+1 x42 -1 x654 >= 0 ;
+1 x48 -1 x654 >= 0 ;
-1 x42 -1 x48 +1 x654 >= -1 ;
+1 x43 -1 x655 >= 0 ;
+1 x49 -1 x655 >= 0 ;
-1 x43 -1 x49 +1 x655 >= -1 ;
+1 x43 -1 x656 >= 0 ;
+1 x50 -1 x656 >= 0 ;
-1 x43 -1 x50 +1 x656 >= -1 ;
+1 x44 -1 x657 >= 0 ;
+1 x49 -1 x657 >= 0 ;
-1 x44 -1 x49 +1 x657 >= -1 ;
+1 x44 -1 x658 >= 0 ;
+1 x50 -1 x658 >= 0 ;
-1 x44 -1 x50 +1 x658 >= -1 ;
+1 x45 -1 x659 >= 0 ;
+1 x51 -1 x659 >= 0 ;
-1 x45 -1 x51 +1 x659 >= -1 ;
+1 x45 -1 x660 >= 0 ;
+1 x52 -1 x660 >= 0 ;
-1 x45 -1 x52 +1 x660 >= -1 ;
+1 x46 -1 x661 >= 0 ;
+1 x51 -1 x661 >= 0 ;
-1 x46 -1 x51 +1 x661 >= -1 ;
+1 x46 -1 x662 >= 0 ;
+1 x52 -1 x662 >= 0 ;
-1 x46 -1 x52 +1 x662 >= -1 ;
+1 x47 -1 x663 >= 0 ;
+1 x53 -1 x663 >= 0 ;
-1 x47 -1 x53 +1 x663 >= -1 ;
+1 x47 -1 x664 >= 0 ;
+1 x54 -1 x664 >= 0 ;
-1 x47 -1 x54 +1 x664 >= -1 ;
+1 x48 -1 x665 >= 0 ;
+1 x53 -1 x665 >= 0 ;
-1 x48 -1 x53 +1 x665 >= -1 ;
+1 x48 -1 x666 >= 0 ;
+1 x54 -1 x666 >= 0 ;
-1 x48 -1 x54 +1 x666 >= -1 ;
+1 x49 -1 x667 >= 0 ;
+1 x55 -1 x667 >= 0 ;
-1 x49 -1 x55 +1 x667 >= -1 ;
+1 x49 -1 x668 >= 0 ;
+1 x56 -1 x668 >= 0 ;
-1 x49 -1 x56 +1 x668 >= -1 ;
+1 x50 -1 x669 >= 0 ;
+1 x55 -1 x669 >= 0 ;
-1 x50 -1 x55 +1 x669 >= -1 ;
+1 x50 -1 x670 >= 0 ;
+1 x56 -1 x670 >= 0 ;
-1 x50 -1 x56 +1 x670 >= -1 ;
+1 x51 -1 x671 >= 0 ;
+1 x57 -1 x671 >= 0 ;
-1 x51 -1 x57 +1 x671 >= -1 ;
+1 x51 -1 x672 >= 0 ;
+1 x58 -1 x672 >= 0 ;
-1 x51 -1 x58 +1 x672 >= -1 ;
+1 x52 -1 x673 >= 0 ;
+1 x57 -1 x673 >= 0 ;
-1 x52 -1 x57 +1 x673 >= -1 ;
+1 x52 -1 x674 >= 0 ;
+1 x58 -1 x674 >= 0 ;
-1 x52 -1 x58 +1 x674 >= -1 ;
+1 x53 -1 x675 >= 0 ;
+1 x59 -1 x675 >= 0 ;
-1 x53 -1 x59 +1 x675 >= -1 ;
+1 x53 -1 x676 >= 0 ;
+1 x60 -1 x676 >= 0 ;
-1 x53 -1 x60 +1 x676 >= -1 ;
+1 x54 -1 x677 >= 0 ;
+1 x59 -1 x677 >= 0 ;
-1 x54 -1 x59 +1 x677 >= -1 ;
+1 x54 -1 x678 >= 0 ;
+1 x60 -1 x678 >= 0 ;
-1 x54 -1 x60 +1 x678 >= -1 ;
+1 x55 -1 x679 >= 0 ;
+1 x31 -1 x679 >= 0 ;
-1 x55 -1 x31 +1 x679 >= -1 ;
+1 x55 -1 x680 >= 0 ;
+1 x32 -1 x680 >= 0 ;
-1 x55 -1 x32 +1 x680 >= -1 ;
+1 x56 -1 x681 >= 0 ;
+1 x31 -1 x681 >= 0 ;
-1 x56 -1 x31 +1 x681 >= -1 ;
+1 x56 -1 x682 >= 0 ;
+1 x32 -1 x682 >= 0 ;
-1 x56 -1 x32 +1 x682 >= -1 ;
+1 x57 -1 x683 >= 0 ;
+1 x33 -1 x683 >= 0 ;
-1 x57 -1 x33 +1 x683 >= -1 ;
+1 x57 -1 x684 >= 0 ;
+1 x34 -1 x684 >= 0 ;
-1 x57 -1 x34 +1 x684 >= -1 ;
+1 x58 -1 x685 >= 0 ;
+1 x33 -1 x685 >= 0 ;
-1 x58 -1 x33 +1 x685 >= -1 ;
+1 x58 -1 x686 >= 0 ;
+1 x34 -1 x686 >= 0 ;
-1 x58 -1 x34 +1 x686 >= -1 ;
+1 x59 -1 x687 >= 0 ;
+1 x35 -1 x687 >= 0 ;
-1 x59 -1 x35 +1 x687 >= -1 ;
+1 x59 -1 x688 >= 0 ;
+1 x36 -1 x688 >= 0 ;
-1 x59 -1 x36 +1 x688 >= -1 ;
+1 x60 -1 x689 >= 0 ;
+1 x35 -1 x689 >= 0 ;
-1 x60 -1 x35 +1 x689 >= -1 ;
+1 x60 -1 x690 >= 0 ;
+1 x36 -1 x690 >= 0 ;
-1 x60 -1 x36 +1 x690 >= -1 ;
+1 x31 -1 x691 >= 0 ;
+1 x39 -1 x691 >= 0 ;
-1 x31 -1 x39 +1 x691 >= -1 ;
+1 x31 -1 x692 >= 0 ;
+1 x40 -1 x692 >= 0 ;
-1 x31 -1 x40 +1 x692 >= -1 ;
+1 x32 -1 x693 >= 0 ;
+1 x39 -1 x693 >= 0 ;
-1 x32 -1 x39 +1 x693 >= -1 ;
+1 x32 -1 x694 >= 0 ;
+1 x40 -1 x694 >= 0 ;
-1 x32 -1 x40 +1 x694 >= -1 ;
+1 x33 -1 x695 >= 0 ;
+1 x41 -1 x695 >= 0 ;
-1 x33 -1 x41 +1 x695 >= -1 ;
+1 x33 -1 x696 >= 0 ;
+1 x42 -1 x696 >= 0 ;
-1 x33 -1 x42 +1 x696 >= -1 ;
+1 x34 -1 x697 >= 0 ;
+1 x41 -1 x697 >= 0 ;
-1 x34 -1 x41 +1 x697 >= -1 ;
+1 x34 -1 x698 >= 0 ;
+1 x42 -1 x698 >= 0 ;
-1 x34 -1 x42 +1 x698 >= -1 ;
+1 x35 -1 x699 >= 0 ;
+1 x43 -1 x699 >= 0 ;
-1 x35 -1 x43 +1 x699 >= -1 ;
+1 x35 -1 x700 >= 0 ;
+1 x44 -1 x700 >= 0 ;
-1 x35 -1 x44 +1 x700 >= -1 ;
+1 x36 -1 x701 >= 0 ;
+1 x43 -1 x701 >= 0 ;
-1 x36 -1 x43 +1 x701 >= -1 ;
+1 x36 -1 x702 >= 0 ;
+1 x44 -1 x702 >= 0 ;
-1 x36 -1 x44 +1 x702 >= -1 ;
+1 x37 -1 x703 >= 0 ;
+1 x45 -1 x703 >= 0 ;
-1 x37 -1 x45 +1 x703 >= -1 ;
+1 x37 -1 x704 >= 0 ;
+1 x46 -1 x704 >= 0 ;
-1 x37 -1 x46 +1 x704 >= -1 ;
+1 x38 -1 x705 >= 0 ;
+1 x45 -1 x705 >= 0 ;
-1 x38 -1 x45 +1 x705 >= -1 ;
+1 x38 -1 x706 >= 0 ;
+1 x46 -1 x706 >= 0 ;
-1 x38 -1 x46 +1 x706 >= -1 ;
+1 x39 -1 x707 >= 0 ;
+1 x47 -1 x707 >= 0 ;
-1 x39 -1 x47 +1 x707 >= -1 ;
+1 x39 -1 x708 >= 0 ;
+1 x48 -1 x708 >= 0 ;
-1 x39 -1 x48 +1 x708 >= -1 ;
+1 x40 -1 x709 >= 0 ;
+1 x47 -1 x709 >= 0 ;
-1 x40 -1 x47 +1 x709 >= -1 ;
+1 x40 -1 x710 >= 0 ;
+1 x48 -1 x710 >= 0 ;
-1 x40 -1 x48 +1 x710 >= -1 ;
+1 x41 -1 x711 >= 0 ;
+1 x49 -1 x711 >= 0 ;
-1 x41 -1 x49 +1 x711 >= -1 ;
+1 x41 -1 x712 >= 0 ;
+1 x50 -1 x712 >= 0 ;
-1 x41 -1 x50 +1 x712 >= -1 ;
+1 x42 -1 x713 >= 0 ;
+1 x49 -1 x713 >= 0 ;
-1 x42 -1 x49 +1 x713 >= -1 ;
+1 x42 -1 x714 >= 0 ;
+1 x50 -1 x714 >= 0 ;
-1 x42 -1 x50 +1 x714 >= -1 ;
+1 x43 -1 x715 >= 0 ;
+1 x51 -1 x715 >= 0 ;
-1 x43 -1 x51 +1 x715 >= -1 ;
+1 x43 -1 x716 >= 0 ;
+1 x52 -1 x716 >= 0 ;
-1 x43 -1 x52 +1 x716 >= -1 ;
+1 x44 -1 x717 >= 0 ;
+1 x51 -1 x717 >= 0 ;
-1 x44 -1 x51 +1 x717 >= -1 ;
+1 x44 -1 x718 >= 0 ;
+1 x52 -1 x718 >= 0 ;
-1 x44 -1 x52 +1 x718 >= -1 ;
+1 x45 -1 x719 >= 0 ;
+1 x53 -1 x719 >= 0 ;
-1 x45 -1 x53 +1 x719 >= -1 ;
+1 x45 -1 x720 >= 0 ;
+1 x54 -1 x720 >= 0 ;
-1 x45 -1 x54 +1 x720 >= -1 ;
+1 x46 -1 x721 >= 0 ;
+1 x53 -1 x721 >= 0 ;
-1 x46 -1 x53 +1 x721 >= -1 ;
+1 x46 -1 x722 >= 0 ;
+1 x54 -1 x722 >= 0 ;
-1 x46 -1 x54 +1 x722 >= -1 ;
+1 x47 -1 x723 >= 0 ;
+1 x55 -1 x723 >= 0 ;
-1 x47 -1 x55 +1 x723 >= -1 ;
+1 x47 -1 x724 >= 0 ;
+1 x56 -1 x724 >= 0 ;
-1 x47 -1 x56 +1 x724 >= -1 ;
+1 x48 -1 x725 >= 0 ;
+1 x55 -1 x725 >= 0 ;
-1 x48 -1 x55 +1 x725 >= -1 ;
+1 x48 -1 x726 >= 0 ;
+1 x56 -1 x726 >= 0 ;
-1 x48 -1 x56 +1 x726 >= -1 ;
+1 x49 -1 x727 >= 0 ;
+1 x57 -1 x727 >= 0 ;
-1 x49 -1 x57 +1 x727 >= -1 ;
+1 x49 -1 x728 >= 0 ;
+1 x58 -1 x728 >= 0 ;
-1 x49 -1 x58 +1 x728 >= -1 ;
+1 x50 -1 x729 >= 0 ;
+1 x57 -1 x729 >= 0 ;
-1 x50 -1 x57 +1 x729 >= -1 ;
+1 x50 -1 x730 >= 0 ;
+1 x58 -1 x730 >= 0 ;
-1 x50 -1 x58 +1 x730 >= -1 ;
+1 x51 -1 x731 >= 0 ;
+1 x59 -1 x731 >= 0 ;
-1 x51 -1 x59 +1 x731 >= -1 ;
+1 x51 -1 x732 >= 0 ;
+1 x60 -1 x732 >= 0 ;
-1 x51 -1 x60 +1 x732 >= -1 ;
+1 x52 -1 x733 >= 0 ;
+1 x59 -1 x733 >= 0 ;
-1 x52 -1 x59 +1 x733 >= -1 ;
+1 x52 -1 x734 >= 0 ;
+1 x60 -1 x734 >= 0 ;
-1 x52 -1 x60 +1 x734 >= -1 ;
+1 x53 -1 x735 >= 0 ;
+1 x31 -1 x735 >= 0 ;
-1 x53 -1 x31 +1 x735 >= -1 ;
+1 x53 -1 x736 >= 0 ;
+1 x32 -1 x736 >= 0 ;
-1 x53 -1 x32 +1 x736 >= -1 ;
+1 x54 -1 x737 >= 0 ;
+1 x31 -1 x737 >= 0 ;
-1 x54 -1 x31 +1 x737 >= -1 ;
+1 x54 -1 x738 >= 0 ;
+1 x32 -1 x738 >= 0 ;
-1 x54 -1 x32 +1 x738 >= -1 ;
+1 x55 -1 x739 >= 0 ;
+1 x33 -1 x739 >= 0 ;
-1 x55 -1 x33 +1 x739 >= -1 ;
+1 x55 -1 x740 >= 0 ;
+1 x34 -1 x740 >= 0 ;
-1 x55 -1 x34 +1 x740 >= -1 ;
+1 x56 -1 x741 >= 0 ;
+1 x33 -1 x741 >= 0 ;
-1 x56 -1 x33 +1 x741 >= -1 ;
+1 x56 -1 x742 >= 0 ;
+1 x34 -1 x742 >= 0 ;
-1 x56 -1 x34 +1 x742 >= -1 ;
+1 x57 -1 x743 >= 0 ;
+1 x35 -1 x743 >= 0 ;
-1 x57 -1 x35 +1 x743 >= -1 ;
+1 x57 -1 x744 >= 0 ;
+1 x36 -1 x744 >= 0 ;
-1 x57 -1 x36 +1 x744 >= -1 ;
+1 x58 -1 x745 >= 0 ;
+1 x35 -1 x745 >= 0 ;
-1 x58 -1 x35 +1 x745 >= -1 ;
+1 x58 -1 x746 >= 0 ;
+1 x36 -1 x746 >= 0 ;
-1 x58 -1 x36 +1 x746 >= -1 ;
+1 x59 -1 x747 >= 0 ;
+1 x37 -1 x747 >= 0 ;
-1 x59 -1 x37 +1 x747 >= -1 ;
+1 x59 -1 x748 >= 0 ;
+1 x38 -1 x748 >= 0 ;
-1 x59 -1 x38 +1 x748 >= -1 ;
+1 x60 -1 x749 >= 0 ;
+1 x37 -1 x749 >= 0 ;
-1 x60 -1 x37 +1 x749 >= -1 ;
+1 x60 -1 x750 >= 0 ;
+1 x38 -1 x750 >= 0 ;
-1 x60 -1 x38 +1 x750 >= -1 ;
+1 x31 -1 x751 >= 0 ;
+1 x41 -1 x751 >= 0 ;
-1 x31 -1 x41 +1 x751 >= -1 ;
+1 x31 -1 x752 >= 0 ;
+1 x42 -1 x752 >= 0 ;
-1 x31 -1 x42 +1 x752 >= -1 ;
+1 x32 -1 x753 >= 0 ;
+1 x41 -1 x753 >= 0 ;
-1 x32 -1 x41 +1 x753 >= -1 ;
+1 x32 -1 x754 >= 0 ;
+1 x42 -1 x754 >= 0 ;
-1 x32 -1 x42 +1 x754 >= -1 ;
+1 x33 -1 x755 >= 0 ;
+1 x43 -1 x755 >= 0 ;
-1 x33 -1 x43 +1 x755 >= -1 ;
+1 x33 -1 x756 >= 0 ;
+1 x44 -1 x756 >= 0 ;
-1 x33 -1 x44 +1 x756 >= -1 ;
+1 x34 -1 x757 >= 0 ;
+1 x43 -1 x757 >= 0 ;
-1 x34 -1 x43 +1 x757 >= -1 ;
+1 x34 -1 x758 >= 0 ;
+1 x44 -1 x758 >= 0 ;
-1 x34 -1 x44 +1 x758 >= -1 ;
+1 x35 -1 x759 >= 0 ;
+1 x45 -1 x759 >= 0 ;
-1 x35 -1 x45 +1 x759 >= -1 ;
+1 x35 -1 x760 >= 0 ;
+1 x46 -1 x760 >= 0 ;
-1 x35 -1 x46 +1 x760 >= -1 ;
+1 x36 -1 x761 >= 0 ;
+1 x45 -1 x761 >= 0 ;
-1 x36 -1 x45 +1 x761 >= -1 ;
+1 x36 -1 x762 >= 0 ;
+1 x46 -1 x762 >= 0 ;
-1 x36 -1 x46 +1 x762 >= -1 ;
+1 x37 -1 x763 >= 0 ;
+1 x47 -1 x763 >= 0 ;
-1 x37 -1 x47 +1 x763 >= -1 ;
+1 x37 -1 x764 >= 0 ;
+1 x48 -1 x764 >= 0 ;
-1 x37 -1 x48 +1 x764 >= -1 ;
+1 x38 -1 x765 >= 0 ;
+1 x47 -1 x765 >= 0 ;
-1 x38 -1 x47 +1 x765 >= -1 ;
+1 x38 -1 x766 >= 0 ;
+1 x48 -1 x766 >= 0 ;
-1 x38 -1 x48 +1 x766 >= -1 ;
+1 x39 -1 x767 >= 0 ;
+1 x49 -1 x767 >= 0 ;
-1 x39 -1 x49 +1 x767 >= -1 ;
+1 x39 -1 x768 >= 0 ;
+1 x50 -1 x768 >= 0 ;
-1 x39 -1 x50 +1 x768 >= -1 ;
+1 x40 -1 x769 >= 0 ;
+1 x49 -1 x769 >= 0 ;
-1 x40 -1 x49 +1 x769 >= -1 ;
+1 x40 -1 x770 >= 0 ;
+1 x50 -1 x770 >= 0 ;
-1 x40 -1 x50 +1 x770 >= -1 ;
+1 x41 -1 x771 >= 0 ;
+1 x51 -1 x771 >= 0 ;
-1 x41 -1 x51 +1 x771 >= -1 ;
+1 x41 -1 x772 >= 0 ;
+1 x52 -1 x772 >= 0 ;
-1 x41 -1 x52 +1 x772 >= -1 ;
+1 x42 -1 x773 >= 0 ;
+1 x51 -1 x773 >= 0 ;
-1 x42 -1 x51 +1 x773 >= -1 ;
+1 x42 -1 x774 >= 0 ;
+1 x52 -1 x774 >= 0 ;
-1 x42 -1 x52 +1 x774 >= -1 ;
+1 x43 -1 x775 >= 0 ;
+1 x53 -1 x775 >= 0 ;
-1 x43 -1 x53 +1 x775 >= -1 ;
+1 x43 -1 x776 >= 0 ;
+1 x54 -1 x776 >= 0 ;
-1 x43 -1 x54 +1 x776 >= -1 ;
+1 x44 -1 x777 >= 0 ;
+1 x53 -1 x777 >= 0 ;
-1 x44 -1 x53 +1 x777 >= -1 ;
+1 x44 -1 x778 >= 0 ;
+1 x54 -1 x778 >= 0 ;
-1 x44 -1 x54 +1 x778 >= -1 ;
+1 x45 -1 x779 >= 0 ;
+1 x55 -1 x779 >= 0 ;
-1 x45 -1 x55 +1 x779 >= -1 ;
+1 x45 -1 x780 >= 0 ;
+1 x56 -1 x780 >= 0 ;
-1 x45 -1 x56 +1 x780 >= -1 ;
+1 x46 -1 x781 >= 0 ;
+1 x55 -1 x781 >= 0 ;
-1 x46 -1 x55 +1 x781 >= -1 ;
+1 x46 -1 x782 >= 0 ;
+1 x56 -1 x782 >= 0 ;
-1 x46 -1 x56 +1 x782 >= -1 ;
+1 x47 -1 x783 >= 0 ;
+1 x57 -1 x783 >= 0 ;
-1 x47 -1 x57 +1 x783 >= -1 ;
+1 x47 -1 x784 >= 0 ;
+1 x58 -1 x784 >= 0 ;
-1 x47 -1 x58 +1 x784 >= -1 ;
+1 x48 -1 x785 >= 0 ;
+1 x57 -1 x785 >= 0 ;
-1 x48 -1 x57 +1 x785 >= -1 ;
+1 x48 -1 x786 >= 0 ;
+1 x58 -1 x786 >= 0 ;
-1 x48 -1 x58 +1 x786 >= -1 ;
+1 x49 -1 x787 >= 0 ;
+1 x59 -1 x787 >= 0 ;
-1 x49 -1 x59 +1 x787 >= -1 ;
+1 x49 -1 x788 >= 0 ;
+1 x60 -1 x788 >= 0 ;
-1 x49 -1 x60 +1 x788 >= -1 ;
+1 x50 -1 x789 >= 0 ;
+1 x59 -1 x789 >= 0 ;
-1 x50 -1 x59 +1 x789 >= -1 ;
+1 x50 -1 x790 >= 0 ;
+1 x60 -1 x790 >= 0 ;
-1 x50 -1 x60 +1 x790 >= -1 ;
+1 x51 -1 x791 >= 0 ;
+1 x31 -1 x791 >= 0 ;
-1 x51 -1 x31 +1 x791 >= -1 ;
+1 x51 -1 x792 >= 0 ;
+1 x32 -1 x792 >= 0 ;
-1 x51 -1 x32 +1 x792 >= -1 ;
+1 x52 -1 x793 >= 0 ;
+1 x31 -1 x793 >= 0 ;
-1 x52 -1 x31 +1 x793 >= -1 ;
+1 x52 -1 x794 >= 0 ;
+1 x32 -1 x794 >= 0 ;
-1 x52 -1 x32 +1 x794 >= -1 ;
+1 x53 -1 x795 >= 0 ;
+1 x33 -1 x795 >= 0 ;
-1 x53 -1 x33 +1 x795 >= -1 ;
+1 x53 -1 x796 >= 0 ;
+1 x34 -1 x796 >= 0 ;
-1 x53 -1 x34 +1 x796 >= -1 ;
+1 x54 -1 x797 >= 0 ;
+1 x33 -1 x797 >= 0 ;
-1 x54 -1 x33 +1 x797 >= -1 ;
+1 x54 -1 x798 >= 0 ;
+1 x34 -1 x798 >= 0 ;
-1 x54 -1 x34 +1 x798 >= -1 ;
+1 x55 -1 x799 >= 0 ;
+1 x35 -1 x799 >= 0 ;
-1 x55 -1 x35 +1 x799 >= -1 ;
+1 x55 -1 x800 >= 0 ;
+1 x36 -1 x800 >= 0 ;
-1 x55 -1 x36 +1 x800 >= -1 ;
+1 x56 -1 x801 >= 0 ;
+1 x35 -1 x801 >= 0 ;
-1 x56 -1 x35 +1 x801 >= -1 ;
+1 x56 -1 x802 >= 0 ;
+1 x36 -1 x802 >= 0 ;
-1 x56 -1 x36 +1 x802 >= -1 ;
+1 x57 -1 x803 >= 0 ;
+1 x37 -1 x803 >= 0 ;
-1 x57 -1 x37 +1 x803 >= -1 ;
+1 x57 -1 x804 >= 0 ;
+1 x38 -1 x804 >= 0 ;
-1 x57 -1 x38 +1 x804 >= -1 ;
+1 x58 -1 x805 >= 0 ;
+1 x37 -1 x805 >= 0 ;
-1 x58 -1 x37 +1 x805 >= -1 ;
+1 x58 -1 x806 >= 0 ;
+1 x38 -1 x806 >= 0 ;
-1 x58 -1 x38 +1 x806 >= -1 ;
+1 x59 -1 x807 >= 0 ;
+1 x39 -1 x807 >= 0 ;
-1 x59 -1 x39 +1 x807 >= -1 ;
+1 x59 -1 x808 >= 0 ;
+1 x40 -1 x808 >= 0 ;
-1 x59 -1 x40 +1 x808 >= -1 ;
+1 x60 -1 x809 >= 0 ;
+1 x39 -1 x809 >= 0 ;
-1 x60 -1 x39 +1 x809 >= -1 ;
+1 x60 -1 x810 >= 0 ;
+1 x40 -1 x810 >= 0 ;
-1 x60 -1 x40 +1 x810 >= -1 ;
+1 x31 -1 x811 >= 0 ;
+1 x43 -1 x811 >= 0 ;
-1 x31 -1 x43 +1 x811 >= -1 ;
+1 x31 -1 x812 >= 0 ;
+1 x44 -1 x812 >= 0 ;
-1 x31 -1 x44 +1 x812 >= -1 ;
+1 x32 -1 x813 >= 0 ;
+1 x43 -1 x813 >= 0 ;
-1 x32 -1 x43 +1 x813 >= -1 ;
+1 x32 -1 x814 >= 0 ;
+1 x44 -1 x814 >= 0 ;
-1 x32 -1 x44 +1 x814 >= -1 ;
+1 x33 -1 x815 >= 0 ;
+1 x45 -1 x815 >= 0 ;
-1 x33 -1 x45 +1 x815 >= -1 ;
+1 x33 -1 x816 >= 0 ;
+1 x46 -1 x816 >= 0 ;
-1 x33 -1 x46 +1 x816 >= -1 ;
+1 x34 -1 x817 >= 0 ;
+1 x45 -1 x817 >= 0 ;
-1 x34 -1 x45 +1 x817 >= -1 ;
+1 x34 -1 x818 >= 0 ;
+1 x46 -1 x818 >= 0 ;
-1 x34 -1 x46 +1 x818 >= -1 ;
+1 x35 -1 x819 >= 0 ;
+1 x47 -1 x819 >= 0 ;
-1 x35 -1 x47 +1 x819 >= -1 ;
+1 x35 -1 x820 >= 0 ;
+1 x48 -1 x820 >= 0 ;
-1 x35 -1 x48 +1 x820 >= -1 ;
+1 x36 -1 x821 >= 0 ;
+1 x47 -1 x821 >= 0 ;
-1 x36 -1 x47 +1 x821 >= -1 ;
+1 x36 -1 x822 >= 0 ;
+1 x48 -1 x822 >= 0 ;
-1 x36 -1 x48 +1 x822 >= -1 ;
+1 x37 -1 x823 >= 0 ;
+1 x49 -1 x823 >= 0 ;
-1 x37 -1 x49 +1 x823 >= -1 ;
+1 x37 -1 x824 >= 0 ;
+1 x50 -1 x824 >= 0 ;
-1 x37 -1 x50 +1 x824 >= -1 ;
+1 x38 -1 x825 >= 0 ;
+1 x49 -1 x825 >= 0 ;
-1 x38 -1 x49 +1 x825 >= -1 ;
+1 x38 -1 x826 >= 0 ;
+1 x50 -1 x826 >= 0 ;
-1 x38 -1 x50 +1 x826 >= -1 ;
+1 x39 -1 x827 >= 0 ;
+1 x51 -1 x827 >= 0 ;
-1 x39 -1 x51 +1 x827 >= -1 ;
+1 x39 -1 x828 >= 0 ;
+1 x52 -1 x828 >= 0 ;
-1 x39 -1 x52 +1 x828 >= -1 ;
+1 x40 -1 x829 >= 0 ;
+1 x51 -1 x829 >= 0 ;
-1 x40 -1 x51 +1 x829 >= -1 ;
+1 x40 -1 x830 >= 0 ;
+1 x52 -1 x830 >= 0 ;
-1 x40 -1 x52 +1 x830 >= -1 ;
+1 x41 -1 x831 >= 0 ;
+1 x53 -1 x831 >= 0 ;
-1 x41 -1 x53 +1 x831 >= -1 ;
+1 x41 -1 x832 >= 0 ;
+1 x54 -1 x832 >= 0 ;
-1 x41 -1 x54 +1 x832 >= -1 ;
+1 x42 -1 x833 >= 0 ;
+1 x53 -1 x833 >= 0 ;
-1 x42 -1 x53 +1 x833 >= -1 ;
+1 x42 -1 x834 >= 0 ;
+1 x54 -1 x834 >= 0 ;
-1 x42 -1 x54 +1 x834 >= -1 ;
+1 x43 -1 x835 >= 0 ;
+1 x55 -1 x835 >= 0 ;
-1 x43 -1 x55 +1 x835 >= -1 ;
+1 x43 -1 x836 >= 0 ;
+1 x56 -1 x836 >= 0 ;
-1 x43 -1 x56 +1 x836 >= -1 ;
+1 x44 -1 x837 >= 0 ;
+1 x55 -1 x837 >= 0 ;
-1 x44 -1 x55 +1 x837 >= -1 ;
+1 x44 -1 x838 >= 0 ;
+1 x56 -1 x838 >= 0 ;
-1 x44 -1 x56 +1 x838 >= -1 ;
+1 x45 -1 x839 >= 0 ;
+1 x57 -1 x839 >= 0 ;
-1 x45 -1 x57 +1 x839 >= -1 ;
+1 x45 -1 x840 >= 0 ;
+1 x58 -1 x840 >= 0 ;
-1 x45 -1 x58 +1 x840 >= -1 ;
+1 x46 -1 x841 >= 0 ;
+1 x57 -1 x841 >= 0 ;
-1 x46 -1 x57 +1 x841 >= -1 ;
+1 x46 -1 x842 >= 0 ;
+1 x58 -1 x842 >= 0 ;
-1 x46 -1 x58 +1 x842 >= -1 ;
+1 x47 -1 x843 >= 0 ;
+1 x59 -1 x843 >= 0 ;
-1 x47 -1 x59 +1 x843 >= -1 ;
+1 x47 -1 x844 >= 0 ;
+1 x60 -1 x844 >= 0 ;
-1 x47 -1 x60 +1 x844 >= -1 ;
+1 x48 -1 x845 >= 0 ;
+1 x59 -1 x845 >= 0 ;
-1 x48 -1 x59 +1 x845 >= -1 ;
+1 x48 -1 x846 >= 0 ;
+1 x60 -1 x846 >= 0 ;
-1 x48 -1 x60 +1 x846 >= -1 ;
+1 x49 -1 x847 >= 0 ;
+1 x31 -1 x847 >= 0 ;
-1 x49 -1 x31 +1 x847 >= -1 ;
+1 x49 -1 x848 >= 0 ;
+1 x32 -1 x848 >= 0 ;
-1 x49 -1 x32 +1 x848 >= -1 ;
+1 x50 -1 x849 >= 0 ;
+1 x31 -1 x849 >= 0 ;
-1 x50 -1 x31 +1 x849 >= -1 ;
+1 x50 -1 x850 >= 0 ;
+1 x32 -1 x850 >= 0 ;
-1 x50 -1 x32 +1 x850 >= -1 ;
+1 x51 -1 x851 >= 0 ;
+1 x33 -1 x851 >= 0 ;
-1 x51 -1 x33 +1 x851 >= -1 ;
+1 x51 -1 x852 >= 0 ;
+1 x34 -1 x852 >= 0 ;
-1 x51 -1 x34 +1 x852 >= -1 ;
+1 x52 -1 x853 >= 0 ;
+1 x33 -1 x853 >= 0 ;
-1 x52 -1 x33 +1 x853 >= -1 ;
+1 x52 -1 x854 >= 0 ;
+1 x34 -1 x854 >= 0 ;
-1 x52 -1 x34 +1 x854 >= -1 ;
+1 x53 -1 x855 >= 0 ;
+1 x35 -1 x855 >= 0 ;
-1 x53 -1 x35 +1 x855 >= -1 ;
+1 x53 -1 x856 >= 0 ;
+1 x36 -1 x856 >= 0 ;
-1 x53 -1 x36 +1 x856 >= -1 ;
+1 x54 -1 x857 >= 0 ;
+1 x35 -1 x857 >= 0 ;
-1 x54 -1 x35 +1 x857 >= -1 ;
+1 x54 -1 x858 >= 0 ;
+1 x36 -1 x858 >= 0 ;
-1 x54 -1 x36 +1 x858 >= -1 ;
+1 x55 -1 x859 >= 0 ;
+1 x37 -1 x859 >= 0 ;
-1 x55 -1 x37 +1 x859 >= -1 ;
+1 x55 -1 x860 >= 0 ;
+1 x38 -1 x860 >= 0 ;
-1 x55 -1 x38 +1 x860 >= -1 ;
+1 x56 -1 x861 >= 0 ;
+1 x37 -1 x861 >= 0 ;
-1 x56 -1 x37 +1 x861 >= -1 ;
+1 x56 -1 x862 >= 0 ;
+1 x38 -1 x862 >= 0 ;
-1 x56 -1 x38 +1 x862 >= -1 ;
+1 x57 -1 x863 >= 0 ;
+1 x39 -1 x863 >= 0 ;
-1 x57 -1 x39 +1 x863 >= -1 ;
+1 x57 -1 x864 >= 0 ;
+1 x40 -1 x864 >= 0 ;
-1 x57 -1 x40 +1 x864 >= -1 ;
+1 x58 -1 x865 >= 0 ;
+1 x39 -1 x865 >= 0 ;
-1 x58 -1 x39 +1 x865 >= -1 ;
+1 x58 -1 x866 >= 0 ;
+1 x40 -1 x866 >= 0 ;
-1 x58 -1 x40 +1 x866 >= -1 ;
+1 x59 -1 x867 >= 0 ;
+1 x41 -1 x867 >= 0 ;
-1 x59 -1 x41 +1 x867 >= -1 ;
+1 x59 -1 x868 >= 0 ;
+1 x42 -1 x868 >= 0 ;
-1 x59 -1 x42 +1 x868 >= -1 ;
+1 x60 -1 x869 >= 0 ;
+1 x41 -1 x869 >= 0 ;
-1 x60 -1 x41 +1 x869 >= -1 ;
+1 x60 -1 x870 >= 0 ;
+1 x42 -1 x870 >= 0 ;
-1 x60 -1 x42 +1 x870 >= -1 ;
+1 x31 -1 x871 >= 0 ;
+1 x45 -1 x871 >= 0 ;
-1 x31 -1 x45 +1 x871 >= -1 ;
+1 x31 -1 x872 >= 0 ;
+1 x46 -1 x872 >= 0 ;
-1 x31 -1 x46 +1 x872 >= -1 ;
+1 x32 -1 x873 >= 0 ;
+1 x45 -1 x873 >= 0 ;
-1 x32 -1 x45 +1 x873 >= -1 ;
+1 x32 -1 x874 >= 0 ;
+1 x46 -1 x874 >= 0 ;
-1 x32 -1 x46 +1 x874 >= -1 ;
+1 x33 -1 x875 >= 0 ;
+1 x47 -1 x875 >= 0 ;
-1 x33 -1 x47 +1 x875 >= -1 ;
+1 x33 -1 x876 >= 0 ;
+1 x48 -1 x876 >= 0 ;
-1 x33 -1 x48 +1 x876 >= -1 ;
+1 x34 -1 x877 >= 0 ;
+1 x47 -1 x877 >= 0 ;
-1 x34 -1 x47 +1 x877 >= -1 ;
+1 x34 -1 x878 >= 0 ;
+1 x48 -1 x878 >= 0 ;
-1 x34 -1 x48 +1 x878 >= -1 ;
+1 x35 -1 x879 >= 0 ;
+1 x49 -1 x879 >= 0 ;
-1 x35 -1 x49 +1 x879 >= -1 ;
+1 x35 -1 x880 >= 0 ;
+1 x50 -1 x880 >= 0 ;
-1 x35 -1 x50 +1 x880 >= -1 ;
+1 x36 -1 x881 >= 0 ;
+1 x49 -1 x881 >= 0 ;
-1 x36 -1 x49 +1 x881 >= -1 ;
+1 x36 -1 x882 >= 0 ;
+1 x50 -1 x882 >= 0 ;
-1 x36 -1 x50 +1 x882 >= -1 ;
+1 x37 -1 x883 >= 0 ;
+1 x51 -1 x883 >= 0 ;
-1 x37 -1 x51 +1 x883 >= -1 ;
+1 x37 -1 x884 >= 0 ;
+1 x52 -1 x884 >= 0 ;
-1 x37 -1 x52 +1 x884 >= -1 ;
+1 x38 -1 x885 >= 0 ;
+1 x51 -1 x885 >= 0 ;
-1 x38 -1 x51 +1 x885 >= -1 ;
+1 x38 -1 x886 >= 0 ;
+1 x52 -1 x886 >= 0 ;
-1 x38 -1 x52 +1 x886 >= -1 ;
+1 x39 -1 x887 >= 0 ;
+1 x53 -1 x887 >= 0 ;
-1 x39 -1 x53 +1 x887 >= -1 ;
+1 x39 -1 x888 >= 0 ;
+1 x54 -1 x888 >= 0 ;
-1 x39 -1 x54 +1 x888 >= -1 ;
+1 x40 -1 x889 >= 0 ;
+1 x53 -1 x889 >= 0 ;
-1 x40 -1 x53 +1 x889 >= -1 ;
+1 x40 -1 x890 >= 0 ;
+1 x54 -1 x890 >= 0 ;
-1 x40 -1 x54 +1 x890 >= -1 ;
+1 x41 -1 x891 >= 0 ;
+1 x55 -1 x891 >= 0 ;
-1 x41 -1 x55 +1 x891 >= -1 ;
+1 x41 -1 x892 >= 0 ;
+1 x56 -1 x892 >= 0 ;
-1 x41 -1 x56 +1 x892 >= -1 ;
+1 x42 -1 x893 >= 0 ;
+1 x55 -1 x893 >= 0 ;
-1 x42 -1 x55 +1 x893 >= -1 ;
+1 x42 -1 x894 >= 0 ;
+1 x56 -1 x894 >= 0 ;
-1 x42 -1 x56 +1 x894 >= -1 ;
+1 x43 -1 x895 >= 0 ;
+1 x57 -1 x895 >= 0 ;
-1 x43 -1 x57 +1 x895 >= -1 ;
+1 x43 -1 x896 >= 0 ;
+1 x58 -1 x896 >= 0 ;
-1 x43 -1 x58 +1 x896 >= -1 ;
+1 x44 -1 x897 >= 0 ;
+1 x57 -1 x897 >= 0 ;
-1 x44 -1 x57 +1 x897 >= -1 ;
+1 x44 -1 x898 >= 0 ;
+1 x58 -1 x898 >= 0 ;
-1 x44 -1 x58 +1 x898 >= -1 ;
+1 x45 -1 x899 >= 0 ;
+1 x59 -1 x899 >= 0 ;
-1 x45 -1 x59 +1 x899 >= -1 ;
+1 x45 -1 x900 >= 0 ;
+1 x60 -1 x900 >= 0 ;
-1 x45 -1 x60 +1 x900 >= -1 ;
+1 x46 -1 x901 >= 0 ;
+1 x59 -1 x901 >= 0 ;
-1 x46 -1 x59 +1 x901 >= -1 ;
+1 x46 -1 x902 >= 0 ;
+1 x60 -1 x902 >= 0 ;
-1 x46 -1 x60 +1 x902 >= -1 ;
+1 x47 -1 x903 >= 0 ;
+1 x31 -1 x903 >= 0 ;
-1 x47 -1 x31 +1 x903 >= -1 ;
+1 x47 -1 x904 >= 0 ;
+1 x32 -1 x904 >= 0 ;
-1 x47 -1 x32 +1 x904 >= -1 ;
+1 x48 -1 x905 >= 0 ;
+1 x31 -1 x905 >= 0 ;
-1 x48 -1 x31 +1 x905 >= -1 ;
+1 x48 -1 x906 >= 0 ;
+1 x32 -1 x906 >= 0 ;
-1 x48 -1 x32 +1 x906 >= -1 ;
+1 x49 -1 x907 >= 0 ;
+1 x33 -1 x907 >= 0 ;
-1 x49 -1 x33 +1 x907 >= -1 ;
+1 x49 -1 x908 >= 0 ;
+1 x34 -1 x908 >= 0 ;
-1 x49 -1 x34 +1 x908 >= -1 ;
+1 x50 -1 x909 >= 0 ;
+1 x33 -1 x909 >= 0 ;
-1 x50 -1 x33 +1 x909 >= -1 ;
+1 x50 -1 x910 >= 0 ;
+1 x34 -1 x910 >= 0 ;
-1 x50 -1 x34 +1 x910 >= -1 ;
+1 x51 -1 x911 >= 0 ;
+1 x35 -1 x911 >= 0 ;
-1 x51 -1 x35 +1 x911 >= -1 ;
+1 x51 -1 x912 >= 0 ;
+1 x36 -1 x912 >= 0 ;
-1 x51 -1 x36 +1 x912 >= -1 ;
+1 x52 -1 x913 >= 0 ;
+1 x35 -1 x913 >= 0 ;
-1 x52 -1 x35 +1 x913 >= -1 ;
+1 x52 -1 x914 >= 0 ;
+1 x36 -1 x914 >= 0 ;
-1 x52 -1 x36 +1 x914 >= -1 ;
+1 x53 -1 x915 >= 0 ;
+1 x37 -1 x915 >= 0 ;
-1 x53 -1 x37 +1 x915 >= -1 ;
+1 x53 -1 x916 >= 0 ;
+1 x38 -1 x916 >= 0 ;
-1 x53 -1 x38 +1 x916 >= -1 ;
+1 x54 -1 x917 >= 0 ;
+1 x37 -1 x917 >= 0 ;
-1 x54 -1 x37 +1 x917 >= -1 ;
+1 x54 -1 x918 >= 0 ;
+1 x38 -1 x918 >= 0 ;
-1 x54 -1 x38 +1 x918 >= -1 ;
+1 x55 -1 x919 >= 0 ;
+1 x39 -1 x919 >= 0 ;
-1 x55 -1 x39 +1 x919 >= -1 ;
+1 x55 -1 x920 >= 0 ;
+1 x40 -1 x920 >= 0 ;
-1 x55 -1 x40 +1 x920 >= -1 ;
+1 x56 -1 x921 >= 0 ;
+1 x39 -1 x921 >= 0 ;
-1 x56 -1 x39 +1 x921 >= -1 ;
+1 x56 -1 x922 >= 0 ;
+1 x40 -1 x922 >= 0 ;
-1 x56 -1 x40 +1 x922 >= -1 ;
+1 x57 -1 x923 >= 0 ;
+1 x41 -1 x923 >= 0 ;
-1 x57 -1 x41 +1 x923 >= -1 ;
+1 x57 -1 x924 >= 0 ;
+1 x42 -1 x924 >= 0 ;
-1 x57 -1 x42 +1 x924 >= -1 ;
+1 x58 -1 x925 >= 0 ;
+1 x41 -1 x925 >= 0 ;
-1 x58 -1 x41 +1 x925 >= -1 ;
+1 x58 -1 x926 >= 0 ;
+1 x42 -1 x926 >= 0 ;
-1 x58 -1 x42 +1 x926 >= -1 ;
+1 x59 -1 x927 >= 0 ;
+1 x43 -1 x927 >= 0 ;
-1 x59 -1 x43 +1 x927 >= -1 ;
+1 x59 -1 x928 >= 0 ;
+1 x44 -1 x928 >= 0 ;
-1 x59 -1 x44 +1 x928 >= -1 ;
+1 x60 -1 x929 >= 0 ;
+1 x43 -1 x929 >= 0 ;
-1 x60 -1 x43 +1 x929 >= -1 ;
+1 x60 -1 x930 >= 0 ;
+1 x44 -1 x930 >= 0 ;
-1 x60 -1 x44 +1 x930 >= -1 ;
+1 x91 +2 x92 +2 x93 +4 x94 +1 x95 +2 x96 +2 x97 +4 x98 +1 x99 +2 x100 +2 x101 +4 x102 +1 x103 +2 x104 +2 x105 +4 x106 +1 x107 +2 x108 +2 x109 +4 x110 +1 x111 +2 x112 +2 x113 +4 x114 +1 x115 +2 x116 +2 x117 +4 x118 +1 x119 +2 x120 +2 x121 +4 x122 +1 x123 +2 x124 +2 x125 +4 x126 +1 x127 +2 x128 +2 x129 +4 x130 +1 x131 +2 x132 +2 x133 +4 x134 +1 x135 +2 x136 +2 x137 +4 x138 +1 x139 +2 x140 +2 x141 +4 x142 +1 x143 +2 x144 +2 x145 +4 x146 +1 x147 +2 x148 +2 x149 +4 x150 +1 x511 +2 x512 +2 x513 +4 x514 +1 x515 +2 x516 +2 x517 +4 x518 +1 x519 +2 x520 +2 x521 +4 x522 +1 x523 +2 x524 +2 x525 +4 x526 +1 x527 +2 x528 +2 x529 +4 x530 +1 x531 +2 x532 +2 x533 +4 x534 +1 x535 +2 x536 +2 x537 +4 x538 +1 x539 +2 x540 +2 x541 +4 x542 +1 x543 +2 x544 +2 x545 +4 x546 +1 x547 +2 x548 +2 x549 +4 x550 +1 x551 +2 x552 +2 x553 +4 x554 +1 x555 +2 x556 +2 x557 +4 x558 +1 x559 +2 x560 +2 x561 +4 x562 +1 x563 +2 x564 +2 x565 +4 x566 +1 x567 +2 x568 +2 x569 +4 x570 = 63 ;
+1 x151 +2 x152 +2 x153 +4 x154 +1 x155 +2 x156 +2 x157 +4 x158 +1 x159 +2 x160 +2 x161 +4 x162 +1 x163 +2 x164 +2 x165 +4 x166 +1 x167 +2 x168 +2 x169 +4 x170 +1 x171 +2 x172 +2 x173 +4 x174 +1 x175 +2 x176 +2 x177 +4 x178 +1 x179 +2 x180 +2 x181 +4 x182 +1 x183 +2 x184 +2 x185 +4 x186 +1 x187 +2 x188 +2 x189 +4 x190 +1 x191 +2 x192 +2 x193 +4 x194 +1 x195 +2 x196 +2 x197 +4 x198 +1 x199 +2 x200 +2 x201 +4 x202 +1 x203 +2 x204 +2 x205 +4 x206 +1 x207 +2 x208 +2 x209 +4 x210 +1 x571 +2 x572 +2 x573 +4 x574 +1 x575 +2 x576 +2 x577 +4 x578 +1 x579 +2 x580 +2 x581 +4 x582 +1 x583 +2 x584 +2 x585 +4 x586 +1 x587 +2 x588 +2 x589 +4 x590 +1 x591 +2 x592 +2 x593 +4 x594 +1 x595 +2 x596 +2 x597 +4 x598 +1 x599 +2 x600 +2 x601 +4 x602 +1 x603 +2 x604 +2 x605 +4 x606 +1 x607 +2 x608 +2 x609 +4 x610 +1 x611 +2 x612 +2 x613 +4 x614 +1 x615 +2 x616 +2 x617 +4 x618 +1 x619 +2 x620 +2 x621 +4 x622 +1 x623 +2 x624 +2 x625 +4 x626 +1 x627 +2 x628 +2 x629 +4 x630 = 63 ;
+1 x211 +2 x212 +2 x213 +4 x214 +1 x215 +2 x216 +2 x217 +4 x218 +1 x219 +2 x220 +2 x221 +4 x222 +1 x223 +2 x224 +2 x225 +4 x226 +1 x227 +2 x228 +2 x229 +4 x230 +1 x231 +2 x232 +2 x233 +4 x234 +1 x235 +2 x236 +2 x237 +4 x238 +1 x239 +2 x240 +2 x241 +4 x242 +1 x243 +2 x244 +2 x245 +4 x246 +1 x247 +2 x248 +2 x249 +4 x250 +1 x251 +2 x252 +2 x253 +4 x254 +1 x255 +2 x256 +2 x257 +4 x258 +1 x259 +2 x260 +2 x261 +4 x262 +1 x263 +2 x264 +2 x265 +4 x266 +1 x267 +2 x268 +2 x269 +4 x270 +1 x631 +2 x632 +2 x633 +4 x634 +1 x635 +2 x636 +2 x637 +4 x638 +1 x639 +2 x640 +2 x641 +4 x642 +1 x643 +2 x644 +2 x645 +4 x646 +1 x647 +2 x648 +2 x649 +4 x650 +1 x651 +2 x652 +2 x653 +4 x654 +1 x655 +2 x656 +2 x657 +4 x658 +1 x659 +2 x660 +2 x661 +4 x662 +1 x663 +2 x664 +2 x665 +4 x666 +1 x667 +2 x668 +2 x669 +4 x670 +1 x671 +2 x672 +2 x673 +4 x674 +1 x675 +2 x676 +2 x677 +4 x678 +1 x679 +2 x680 +2 x681 +4 x682 +1 x683 +2 x684 +2 x685 +4 x686 +1 x687 +2 x688 +2 x689 +4 x690 = 63 ;
+1 x271 +2 x272 +2 x273 +4 x274 +1 x275 +2 x276 +2 x277 +4 x278 +1 x279 +2 x280 +2 x281 +4 x282 +1 x283 +2 x284 +2 x285 +4 x286 +1 x287 +2 x288 +2 x289 +4 x290 +1 x291 +2 x292 +2 x293 +4 x294 +1 x295 +2 x296 +2 x297 +4 x298 +1 x299 +2 x300 +2 x301 +4 x302 +1 x303 +2 x304 +2 x305 +4 x306 +1 x307 +2 x308 +2 x309 +4 x310 +1 x311 +2 x312 +2 x313 +4 x314 +1 x315 +2 x316 +2 x317 +4 x318 +1 x319 +2 x320 +2 x321 +4 x322 +1 x323 +2 x324 +2 x325 +4 x326 +1 x327 +2 x328 +2 x329 +4 x330 +1 x691 +2 x692 +2 x693 +4 x694 +1 x695 +2 x696 +2 x697 +4 x698 +1 x699 +2 x700 +2 x701 +4 x702 +1 x703 +2 x704 +2 x705 +4 x706 +1 x707 +2 x708 +2 x709 +4 x710 +1 x711 +2 x712 +2 x713 +4 x714 +1 x715 +2 x716 +2 x717 +4 x718 +1 x719 +2 x720 +2 x721 +4 x722 +1 x723 +2 x724 +2 x725 +4 x726 +1 x727 +2 x728 +2 x729 +4 x730 +1 x731 +2 x732 +2 x733 +4 x734 +1 x735 +2 x736 +2 x737 +4 x738 +1 x739 +2 x740 +2 x741 +4 x742 +1 x743 +2 x744 +2 x745 +4 x746 +1 x747 +2 x748 +2 x749 +4 x750 = 63 ;
+1 x331 +2 x332 +2 x333 +4 x334 +1 x335 +2 x336 +2 x337 +4 x338 +1 x339 +2 x340 +2 x341 +4 x342 +1 x343 +2 x344 +2 x345 +4 x346 +1 x347 +2 x348 +2 x349 +4 x350 +1 x351 +2 x352 +2 x353 +4 x354 +1 x355 +2 x356 +2 x357 +4 x358 +1 x359 +2 x360 +2 x361 +4 x362 +1 x363 +2 x364 +2 x365 +4 x366 +1 x367 +2 x368 +2 x369 +4 x370 +1 x371 +2 x372 +2 x373 +4 x374 +1 x375 +2 x376 +2 x377 +4 x378 +1 x379 +2 x380 +2 x381 +4 x382 +1 x383 +2 x384 +2 x385 +4 x386 +1 x387 +2 x388 +2 x389 +4 x390 +1 x751 +2 x752 +2 x753 +4 x754 +1 x755 +2 x756 +2 x757 +4 x758 +1 x759 +2 x760 +2 x761 +4 x762 +1 x763 +2 x764 +2 x765 +4 x766 +1 x767 +2 x768 +2 x769 +4 x770 +1 x771 +2 x772 +2 x773 +4 x774 +1 x775 +2 x776 +2 x777 +4 x778 +1 x779 +2 x780 +2 x781 +4 x782 +1 x783 +2 x784 +2 x785 +4 x786 +1 x787 +2 x788 +2 x789 +4 x790 +1 x791 +2 x792 +2 x793 +4 x794 +1 x795 +2 x796 +2 x797 +4 x798 +1 x799 +2 x800 +2 x801 +4 x802 +1 x803 +2 x804 +2 x805 +4 x806 +1 x807 +2 x808 +2 x809 +4 x810 = 63 ;
+1 x391 +2 x392 +2 x393 +4 x394 +1 x395 +2 x396 +2 x397 +4 x398 +1 x399 +2 x400 +2 x401 +4 x402 +1 x403 +2 x404 +2 x405 +4 x406 +1 x407 +2 x408 +2 x409 +4 x410 +1 x411 +2 x412 +2 x413 +4 x414 +1 x415 +2 x416 +2 x417 +4 x418 +1 x419 +2 x420 +2 x421 +4 x422 +1 x423 +2 x424 +2 x425 +4 x426 +1 x427 +2 x428 +2 x429 +4 x430 +1 x431 +2 x432 +2 x433 +4 x434 +1 x435 +2 x436 +2 x437 +4 x438 +1 x439 +2 x440 +2 x441 +4 x442 +1 x443 +2 x444 +2 x445 +4 x446 +1 x447 +2 x448 +2 x449 +4 x450 +1 x811 +2 x812 +2 x813 +4 x814 +1 x815 +2 x816 +2 x817 +4 x818 +1 x819 +2 x820 +2 x821 +4 x822 +1 x823 +2 x824 +2 x825 +4 x826 +1 x827 +2 x828 +2 x829 +4 x830 +1 x831 +2 x832 +2 x833 +4 x834 +1 x835 +2 x836 +2 x837 +4 x838 +1 x839 +2 x840 +2 x841 +4 x842 +1 x843 +2 x844 +2 x845 +4 x846 +1 x847 +2 x848 +2 x849 +4 x850 +1 x851 +2 x852 +2 x853 +4 x854 +1 x855 +2 x856 +2 x857 +4 x858 +1 x859 +2 x860 +2 x861 +4 x862 +1 x863 +2 x864 +2 x865 +4 x866 +1 x867 +2 x868 +2 x869 +4 x870 = 63 ;
+1 x451 +2 x452 +2 x453 +4 x454 +1 x455 +2 x456 +2 x457 +4 x458 +1 x459 +2 x460 +2 x461 +4 x462 +1 x463 +2 x464 +2 x465 +4 x466 +1 x467 +2 x468 +2 x469 +4 x470 +1 x471 +2 x472 +2 x473 +4 x474 +1 x475 +2 x476 +2 x477 +4 x478 +1 x479 +2 x480 +2 x481 +4 x482 +1 x483 +2 x484 +2 x485 +4 x486 +1 x487 +2 x488 +2 x489 +4 x490 +1 x491 +2 x492 +2 x493 +4 x494 +1 x495 +2 x496 +2 x497 +4 x498 +1 x499 +2 x500 +2 x501 +4 x502 +1 x503 +2 x504 +2 x505 +4 x506 +1 x507 +2 x508 +2 x509 +4 x510 +1 x871 +2 x872 +2 x873 +4 x874 +1 x875 +2 x876 +2 x877 +4 x878 +1 x879 +2 x880 +2 x881 +4 x882 +1 x883 +2 x884 +2 x885 +4 x886 +1 x887 +2 x888 +2 x889 +4 x890 +1 x891 +2 x892 +2 x893 +4 x894 +1 x895 +2 x896 +2 x897 +4 x898 +1 x899 +2 x900 +2 x901 +4 x902 +1 x903 +2 x904 +2 x905 +4 x906 +1 x907 +2 x908 +2 x909 +4 x910 +1 x911 +2 x912 +2 x913 +4 x914 +1 x915 +2 x916 +2 x917 +4 x918 +1 x919 +2 x920 +2 x921 +4 x922 +1 x923 +2 x924 +2 x925 +4 x926 +1 x927 +2 x928 +2 x929 +4 x930 = 63 ;
