* #variable= 1806 #constraint= 5237 #equal= 25 intsize= 4
* intermediate entry = 3 - 2*(u + 2*v)
* auxiliaries: square XORs, then shifted bit products
+1 x1 +2 x2 +1 x15 +2 x16 +1 x29 +2 x30 = 4 ;
+1 x3 +2 x4 +1 x17 +2 x18 +1 x31 +2 x32 = 3 ;
+1 x5 +2 x6 +1 x19 +2 x20 +1 x33 +2 x34 = 3 ;
+1 x7 +2 x8 +1 x21 +2 x22 +1 x35 +2 x36 = 6 ;
+1 x9 +2 x10 +1 x23 +2 x24 +1 x37 +2 x38 = 3 ;
+1 x11 +2 x12 +1 x25 +2 x26 +1 x39 +2 x40 = 6 ;
+1 x13 +2 x14 +1 x27 +2 x28 +1 x41 +2 x42 = 6 ;
+1 x43 +2 x44 +1 x57 +2 x58 +1 x71 +2 x72 = 4 ;
+1 x45 +2 x46 +1 x59 +2 x60 +1 x73 +2 x74 = 6 ;
+1 x47 +2 x48 +1 x61 +2 x62 +1 x75 +2 x76 = 6 ;
+1 x49 +2 x50 +1 x63 +2 x64 +1 x77 +2 x78 = 3 ;
+1 x51 +2 x52 +1 x65 +2 x66 +1 x79 +2 x80 = 6 ;
+1 x53 +2 x54 +1 x67 +2 x68 +1 x81 +2 x82 = 3 ;
+1 x55 +2 x56 +1 x69 +2 x70 +1 x83 +2 x84 = 3 ;
+15 x1 +30 x2 -12 x15 -24 x16 -3 x29 -6 x30 >= 0 ;
+12 x1 +24 x2 +3 x15 +6 x16 -15 x29 -30 x30 >= 0 ;
+15 x43 +30 x44 -12 x57 -24 x58 -3 x71 -6 x72 >= 0 ;
+12 x43 +24 x44 +3 x57 +6 x58 -15 x71 -30 x72 >= 0 ;
+1 x1 +1 x2 -1 x85 >= 0 ;
-1 x1 -1 x2 -1 x85 >= -2 ;
+1 x1 -1 x2 +1 x85 >= 0 ;
-1 x1 +1 x2 +1 x85 >= 0 ;
+1 x3 +1 x4 -1 x86 >= 0 ;
-1 x3 -1 x4 -1 x86 >= -2 ;
+1 x3 -1 x4 +1 x86 >= 0 ;
-1 x3 +1 x4 +1 x86 >= 0 ;
+1 x5 +1 x6 -1 x87 >= 0 ;
-1 x5 -1 x6 -1 x87 >= -2 ;
+1 x5 -1 x6 +1 x87 >= 0 ;
-1 x5 +1 x6 +1 x87 >= 0 ;
+1 x7 +1 x8 -1 x88 >= 0 ;
-1 x7 -1 x8 -1 x88 >= -2 ;
+1 x7 -1 x8 +1 x88 >= 0 ;
-1 x7 +1 x8 +1 x88 >= 0 ;
+1 x9 +1 x10 -1 x89 >= 0 ;
-1 x9 -1 x10 -1 x89 >= -2 ;
+1 x9 -1 x10 +1 x89 >= 0 ;
-1 x9 +1 x10 +1 x89 >= 0 ;
+1 x11 +1 x12 -1 x90 >= 0 ;
-1 x11 -1 x12 -1 x90 >= -2 ;
+1 x11 -1 x12 +1 x90 >= 0 ;
-1 x11 +1 x12 +1 x90 >= 0 ;
+1 x13 +1 x14 -1 x91 >= 0 ;
-1 x13 -1 x14 -1 x91 >= -2 ;
+1 x13 -1 x14 +1 x91 >= 0 ;
-1 x13 +1 x14 +1 x91 >= 0 ;
+1 x15 +1 x16 -1 x92 >= 0 ;
-1 x15 -1 x16 -1 x92 >= -2 ;
+1 x15 -1 x16 +1 x92 >= 0 ;
-1 x15 +1 x16 +1 x92 >= 0 ;
+1 x17 +1 x18 -1 x93 >= 0 ;
-1 x17 -1 x18 -1 x93 >= -2 ;
+1 x17 -1 x18 +1 x93 >= 0 ;
-1 x17 +1 x18 +1 x93 >= 0 ;
+1 x19 +1 x20 -1 x94 >= 0 ;
-1 x19 -1 x20 -1 x94 >= -2 ;
+1 x19 -1 x20 +1 x94 >= 0 ;
-1 x19 +1 x20 +1 x94 >= 0 ;
+1 x21 +1 x22 -1 x95 >= 0 ;
-1 x21 -1 x22 -1 x95 >= -2 ;
+1 x21 -1 x22 +1 x95 >= 0 ;
-1 x21 +1 x22 +1 x95 >= 0 ;
+1 x23 +1 x24 -1 x96 >= 0 ;
-1 x23 -1 x24 -1 x96 >= -2 ;
+1 x23 -1 x24 +1 x96 >= 0 ;
-1 x23 +1 x24 +1 x96 >= 0 ;
+1 x25 +1 x26 -1 x97 >= 0 ;
-1 x25 -1 x26 -1 x97 >= -2 ;
+1 x25 -1 x26 +1 x97 >= 0 ;
-1 x25 +1 x26 +1 x97 >= 0 ;
+1 x27 +1 x28 -1 x98 >= 0 ;
-1 x27 -1 x28 -1 x98 >= -2 ;
+1 x27 -1 x28 +1 x98 >= 0 ;
-1 x27 +1 x28 +1 x98 >= 0 ;
+1 x29 +1 x30 -1 x99 >= 0 ;
-1 x29 -1 x30 -1 x99 >= -2 ;
+1 x29 -1 x30 +1 x99 >= 0 ;
-1 x29 +1 x30 +1 x99 >= 0 ;
+1 x31 +1 x32 -1 x100 >= 0 ;
-1 x31 -1 x32 -1 x100 >= -2 ;
+1 x31 -1 x32 +1 x100 >= 0 ;
-1 x31 +1 x32 +1 x100 >= 0 ;
+1 x33 +1 x34 -1 x101 >= 0 ;
-1 x33 -1 x34 -1 x101 >= -2 ;
+1 x33 -1 x34 +1 x101 >= 0 ;
-1 x33 +1 x34 +1 x101 >= 0 ;
+1 x35 +1 x36 -1 x102 >= 0 ;
-1 x35 -1 x36 -1 x102 >= -2 ;
+1 x35 -1 x36 +1 x102 >= 0 ;
-1 x35 +1 x36 +1 x102 >= 0 ;
+1 x37 +1 x38 -1 x103 >= 0 ;
-1 x37 -1 x38 -1 x103 >= -2 ;
+1 x37 -1 x38 +1 x103 >= 0 ;
-1 x37 +1 x38 +1 x103 >= 0 ;
+1 x39 +1 x40 -1 x104 >= 0 ;
-1 x39 -1 x40 -1 x104 >= -2 ;
+1 x39 -1 x40 +1 x104 >= 0 ;
-1 x39 +1 x40 +1 x104 >= 0 ;
+1 x41 +1 x42 -1 x105 >= 0 ;
-1 x41 -1 x42 -1 x105 >= -2 ;
+1 x41 -1 x42 +1 x105 >= 0 ;
-1 x41 +1 x42 +1 x105 >= 0 ;
+1 x43 +1 x44 -1 x106 >= 0 ;
-1 x43 -1 x44 -1 x106 >= -2 ;
+1 x43 -1 x44 +1 x106 >= 0 ;
-1 x43 +1 x44 +1 x106 >= 0 ;
+1 x45 +1 x46 -1 x107 >= 0 ;
-1 x45 -1 x46 -1 x107 >= -2 ;
+1 x45 -1 x46 +1 x107 >= 0 ;
-1 x45 +1 x46 +1 x107 >= 0 ;
+1 x47 +1 x48 -1 x108 >= 0 ;
-1 x47 -1 x48 -1 x108 >= -2 ;
+1 x47 -1 x48 +1 x108 >= 0 ;
-1 x47 +1 x48 +1 x108 >= 0 ;
+1 x49 +1 x50 -1 x109 >= 0 ;
-1 x49 -1 x50 -1 x109 >= -2 ;
+1 x49 -1 x50 +1 x109 >= 0 ;
-1 x49 +1 x50 +1 x109 >= 0 ;
+1 x51 +1 x52 -1 x110 >= 0 ;
-1 x51 -1 x52 -1 x110 >= -2 ;
+1 x51 -1 x52 +1 x110 >= 0 ;
-1 x51 +1 x52 +1 x110 >= 0 ;
+1 x53 +1 x54 -1 x111 >= 0 ;
-1 x53 -1 x54 -1 x111 >= -2 ;
+1 x53 -1 x54 +1 x111 >= 0 ;
-1 x53 +1 x54 +1 x111 >= 0 ;
+1 x55 +1 x56 -1 x112 >= 0 ;
-1 x55 -1 x56 -1 x112 >= -2 ;
+1 x55 -1 x56 +1 x112 >= 0 ;
-1 x55 +1 x56 +1 x112 >= 0 ;
+1 x57 +1 x58 -1 x113 >= 0 ;
-1 x57 -1 x58 -1 x113 >= -2 ;
+1 x57 -1 x58 +1 x113 >= 0 ;
-1 x57 +1 x58 +1 x113 >= 0 ;
+1 x59 +1 x60 -1 x114 >= 0 ;
-1 x59 -1 x60 -1 x114 >= -2 ;
+1 x59 -1 x60 +1 x114 >= 0 ;
-1 x59 +1 x60 +1 x114 >= 0 ;
+1 x61 +1 x62 -1 x115 >= 0 ;
-1 x61 -1 x62 -1 x115 >= -2 ;
+1 x61 -1 x62 +1 x115 >= 0 ;
-1 x61 +1 x62 +1 x115 >= 0 ;
+1 x63 +1 x64 -1 x116 >= 0 ;
-1 x63 -1 x64 -1 x116 >= -2 ;
+1 x63 -1 x64 +1 x116 >= 0 ;
-1 x63 +1 x64 +1 x116 >= 0 ;
+1 x65 +1 x66 -1 x117 >= 0 ;
-1 x65 -1 x66 -1 x117 >= -2 ;
+1 x65 -1 x66 +1 x117 >= 0 ;
-1 x65 +1 x66 +1 x117 >= 0 ;
+1 x67 +1 x68 -1 x118 >= 0 ;
-1 x67 -1 x68 -1 x118 >= -2 ;
+1 x67 -1 x68 +1 x118 >= 0 ;
-1 x67 +1 x68 +1 x118 >= 0 ;
+1 x69 +1 x70 -1 x119 >= 0 ;
-1 x69 -1 x70 -1 x119 >= -2 ;
+1 x69 -1 x70 +1 x119 >= 0 ;
-1 x69 +1 x70 +1 x119 >= 0 ;
+1 x71 +1 x72 -1 x120 >= 0 ;
-1 x71 -1 x72 -1 x120 >= -2 ;
+1 x71 -1 x72 +1 x120 >= 0 ;
-1 x71 +1 x72 +1 x120 >= 0 ;
+1 x73 +1 x74 -1 x121 >= 0 ;
-1 x73 -1 x74 -1 x121 >= -2 ;
+1 x73 -1 x74 +1 x121 >= 0 ;
-1 x73 +1 x74 +1 x121 >= 0 ;
+1 x75 +1 x76 -1 x122 >= 0 ;
-1 x75 -1 x76 -1 x122 >= -2 ;
+1 x75 -1 x76 +1 x122 >= 0 ;
-1 x75 +1 x76 +1 x122 >= 0 ;
+1 x77 +1 x78 -1 x123 >= 0 ;
-1 x77 -1 x78 -1 x123 >= -2 ;
+1 x77 -1 x78 +1 x123 >= 0 ;
-1 x77 +1 x78 +1 x123 >= 0 ;
+1 x79 +1 x80 -1 x124 >= 0 ;
-1 x79 -1 x80 -1 x124 >= -2 ;
+1 x79 -1 x80 +1 x124 >= 0 ;
-1 x79 +1 x80 +1 x124 >= 0 ;
+1 x81 +1 x82 -1 x125 >= 0 ;
-1 x81 -1 x82 -1 x125 >= -2 ;
+1 x81 -1 x82 +1 x125 >= 0 ;
-1 x81 +1 x82 +1 x125 >= 0 ;
+1 x83 +1 x84 -1 x126 >= 0 ;
-1 x83 -1 x84 -1 x126 >= -2 ;
+1 x83 -1 x84 +1 x126 >= 0 ;
-1 x83 +1 x84 +1 x126 >= 0 ;
+1 x85 +1 x86 +1 x87 +1 x88 +1 x89 +1 x90 +1 x91 +1 x92 +1 x93 +1 x94 +1 x95 +1 x96 +1 x97 +1 x98 +1 x99 +1 x100 +1 x101 +1 x102 +1 x103 +1 x104 +1 x105 +1 x106 +1 x107 +1 x108 +1 x109 +1 x110 +1 x111 +1 x112 +1 x113 +1 x114 +1 x115 +1 x116 +1 x117 +1 x118 +1 x119 +1 x120 +1 x121 +1 x122 +1 x123 +1 x124 +1 x125 +1 x126 = 32 ;
+1 x1 -1 x127 >= 0 ;
+1 x3 -1 x127 >= 0 ;
-1 x1 -1 x3 +1 x127 >= -1 ;
+1 x1 -1 x128 >= 0 ;
+1 x4 -1 x128 >= 0 ;
-1 x1 -1 x4 +1 x128 >= -1 ;
+1 x2 -1 x129 >= 0 ;
+1 x3 -1 x129 >= 0 ;
-1 x2 -1 x3 +1 x129 >= -1 ;
+1 x2 -1 x130 >= 0 ;
+1 x4 -1 x130 >= 0 ;
-1 x2 -1 x4 +1 x130 >= -1 ;
+1 x3 -1 x131 >= 0 ;
+1 x5 -1 x131 >= 0 ;
-1 x3 -1 x5 +1 x131 >= -1 ;
+1 x3 -1 x132 >= 0 ;
+1 x6 -1 x132 >= 0 ;
-1 x3 -1 x6 +1 x132 >= -1 ;
+1 x4 -1 x133 >= 0 ;
+1 x5 -1 x133 >= 0 ;
-1 x4 -1 x5 +1 x133 >= -1 ;
+1 x4 -1 x134 >= 0 ;
+1 x6 -1 x134 >= 0 ;
-1 x4 -1 x6 +1 x134 >= -1 ;
+1 x5 -1 x135 >= 0 ;
+1 x7 -1 x135 >= 0 ;
-1 x5 -1 x7 +1 x135 >= -1 ;
+1 x5 -1 x136 >= 0 ;
+1 x8 -1 x136 >= 0 ;
-1 x5 -1 x8 +1 x136 >= -1 ;
+1 x6 -1 x137 >= 0 ;
+1 x7 -1 x137 >= 0 ;
-1 x6 -1 x7 +1 x137 >= -1 ;
+1 x6 -1 x138 >= 0 ;
+1 x8 -1 x138 >= 0 ;
-1 x6 -1 x8 +1 x138 >= -1 ;
+1 x7 -1 x139 >= 0 ;
+1 x9 -1 x139 >= 0 ;
-1 x7 -1 x9 +1 x139 >= -1 ;
+1 x7 -1 x140 >= 0 ;
+1 x10 -1 x140 >= 0 ;
-1 x7 -1 x10 +1 x140 >= -1 ;
+1 x8 -1 x141 >= 0 ;
+1 x9 -1 x141 >= 0 ;
-1 x8 -1 x9 +1 x141 >= -1 ;
+1 x8 -1 x142 >= 0 ;
+1 x10 -1 x142 >= 0 ;
-1 x8 -1 x10 +1 x142 >= -1 ;
+1 x9 -1 x143 >= 0 ;
+1 x11 -1 x143 >= 0 ;
-1 x9 -1 x11 +1 x143 >= -1 ;
+1 x9 -1 x144 >= 0 ;
+1 x12 -1 x144 >= 0 ;
-1 x9 -1 x12 +1 x144 >= -1 ;
+1 x10 -1 x145 >= 0 ;
+1 x11 -1 x145 >= 0 ;
-1 x10 -1 x11 +1 x145 >= -1 ;
+1 x10 -1 x146 >= 0 ;
+1 x12 -1 x146 >= 0 ;
-1 x10 -1 x12 +1 x146 >= -1 ;
+1 x11 -1 x147 >= 0 ;
+1 x13 -1 x147 >= 0 ;
-1 x11 -1 x13 +1 x147 >= -1 ;
+1 x11 -1 x148 >= 0 ;
+1 x14 -1 x148 >= 0 ;
-1 x11 -1 x14 +1 x148 >= -1 ;
+1 x12 -1 x149 >= 0 ;
+1 x13 -1 x149 >= 0 ;
-1 x12 -1 x13 +1 x149 >= -1 ;
+1 x12 -1 x150 >= 0 ;
+1 x14 -1 x150 >= 0 ;
-1 x12 -1 x14 +1 x150 >= -1 ;
+1 x13 -1 x151 >= 0 ;
+1 x15 -1 x151 >= 0 ;
-1 x13 -1 x15 +1 x151 >= -1 ;
+1 x13 -1 x152 >= 0 ;
+1 x16 -1 x152 >= 0 ;
-1 x13 -1 x16 +1 x152 >= -1 ;
+1 x14 -1 x153 >= 0 ;
+1 x15 -1 x153 >= 0 ;
-1 x14 -1 x15 +1 x153 >= -1 ;
+1 x14 -1 x154 >= 0 ;
+1 x16 -1 x154 >= 0 ;
-1 x14 -1 x16 +1 x154 >= -1 ;
+1 x15 -1 x155 >= 0 ;
+1 x17 -1 x155 >= 0 ;
-1 x15 -1 x17 +1 x155 >= -1 ;
+1 x15 -1 x156 >= 0 ;
+1 x18 -1 x156 >= 0 ;
-1 x15 -1 x18 +1 x156 >= -1 ;
+1 x16 -1 x157 >= 0 ;
+1 x17 -1 x157 >= 0 ;
-1 x16 -1 x17 +1 x157 >= -1 ;
+1 x16 -1 x158 >= 0 ;
+1 x18 -1 x158 >= 0 ;
-1 x16 -1 x18 +1 x158 >= -1 ;
+1 x17 -1 x159 >= 0 ;
+1 x19 -1 x159 >= 0 ;
-1 x17 -1 x19 +1 x159 >= -1 ;
+1 x17 -1 x160 >= 0 ;
+1 x20 -1 x160 >= 0 ;
-1 x17 -1 x20 +1 x160 >= -1 ;
+1 x18 -1 x161 >= 0 ;
+1 x19 -1 x161 >= 0 ;
-1 x18 -1 x19 +1 x161 >= -1 ;
+1 x18 -1 x162 >= 0 ;
+1 x20 -1 x162 >= 0 ;
-1 x18 -1 x20 +1 x162 >= -1 ;
+1 x19 -1 x163 >= 0 ;
+1 x21 -1 x163 >= 0 ;
-1 x19 -1 x21 +1 x163 >= -1 ;
+1 x19 -1 x164 >= 0 ;
+1 x22 -1 x164 >= 0 ;
-1 x19 -1 x22 +1 x164 >= -1 ;
+1 x20 -1 x165 >= 0 ;
+1 x21 -1 x165 >= 0 ;
-1 x20 -1 x21 +1 x165 >= -1 ;
+1 x20 -1 x166 >= 0 ;
+1 x22 -1 x166 >= 0 ;
-1 x20 -1 x22 +1 x166 >= -1 ;
+1 x21 -1 x167 >= 0 ;
+1 x23 -1 x167 >= 0 ;
-1 x21 -1 x23 +1 x167 >= -1 ;
+1 x21 -1 x168 >= 0 ;
+1 x24 -1 x168 >= 0 ;
-1 x21 -1 x24 +1 x168 >= -1 ;
+1 x22 -1 x169 >= 0 ;
+1 x23 -1 x169 >= 0 ;
-1 x22 -1 x23 +1 x169 >= -1 ;
+1 x22 -1 x170 >= 0 ;
+1 x24 -1 x170 >= 0 ;
-1 x22 -1 x24 +1 x170 >= -1 ;
+1 x23 -1 x171 >= 0 ;
+1 x25 -1 x171 >= 0 ;
-1 x23 -1 x25 +1 x171 >= -1 ;
+1 x23 -1 x172 >= 0 ;
+1 x26 -1 x172 >= 0 ;
-1 x23 -1 x26 +1 x172 >= -1 ;
+1 x24 -1 x173 >= 0 ;
+1 x25 -1 x173 >= 0 ;
-1 x24 -1 x25 +1 x173 >= -1 ;
+1 x24 -1 x174 >= 0 ;
+1 x26 -1 x174 >= 0 ;
-1 x24 -1 x26 +1 x174 >= -1 ;
+1 x25 -1 x175 >= 0 ;
+1 x27 -1 x175 >= 0 ;
-1 x25 -1 x27 +1 x175 >= -1 ;
+1 x25 -1 x176 >= 0 ;
+1 x28 -1 x176 >= 0 ;
-1 x25 -1 x28 +1 x176 >= -1 ;
+1 x26 -1 x177 >= 0 ;
+1 x27 -1 x177 >= 0 ;
-1 x26 -1 x27 +1 x177 >= -1 ;
+1 x26 -1 x178 >= 0 ;
+1 x28 -1 x178 >= 0 ;
-1 x26 -1 x28 +1 x178 >= -1 ;
+1 x27 -1 x179 >= 0 ;
+1 x29 -1 x179 >= 0 ;
-1 x27 -1 x29 +1 x179 >= -1 ;
+1 x27 -1 x180 >= 0 ;
+1 x30 -1 x180 >= 0 ;
-1 x27 -1 x30 +1 x180 >= -1 ;
+1 x28 -1 x181 >= 0 ;
+1 x29 -1 x181 >= 0 ;
-1 x28 -1 x29 +1 x181 >= -1 ;
+1 x28 -1 x182 >= 0 ;
+1 x30 -1 x182 >= 0 ;
-1 x28 -1 x30 +1 x182 >= -1 ;
+1 x29 -1 x183 >= 0 ;
+1 x31 -1 x183 >= 0 ;
-1 x29 -1 x31 +1 x183 >= -1 ;
+1 x29 -1 x184 >= 0 ;
+1 x32 -1 x184 >= 0 ;
-1 x29 -1 x32 +1 x184 >= -1 ;
+1 x30 -1 x185 >= 0 ;
+1 x31 -1 x185 >= 0 ;
-1 x30 -1 x31 +1 x185 >= -1 ;
+1 x30 -1 x186 >= 0 ;
+1 x32 -1 x186 >= 0 ;
-1 x30 -1 x32 +1 x186 >= -1 ;
+1 x31 -1 x187 >= 0 ;
+1 x33 -1 x187 >= 0 ;
-1 x31 -1 x33 +1 x187 >= -1 ;
+1 x31 -1 x188 >= 0 ;
+1 x34 -1 x188 >= 0 ;
-1 x31 -1 x34 +1 x188 >= -1 ;
+1 x32 -1 x189 >= 0 ;
+1 x33 -1 x189 >= 0 ;
-1 x32 -1 x33 +1 x189 >= -1 ;
+1 x32 -1 x190 >= 0 ;
+1 x34 -1 x190 >= 0 ;
-1 x32 -1 x34 +1 x190 >= -1 ;
+1 x33 -1 x191 >= 0 ;
+1 x35 -1 x191 >= 0 ;
-1 x33 -1 x35 +1 x191 >= -1 ;
+1 x33 -1 x192 >= 0 ;
+1 x36 -1 x192 >= 0 ;
-1 x33 -1 x36 +1 x192 >= -1 ;
+1 x34 -1 x193 >= 0 ;
+1 x35 -1 x193 >= 0 ;
-1 x34 -1 x35 +1 x193 >= -1 ;
+1 x34 -1 x194 >= 0 ;
+1 x36 -1 x194 >= 0 ;
-1 x34 -1 x36 +1 x194 >= -1 ;
+1 x35 -1 x195 >= 0 ;
+1 x37 -1 x195 >= 0 ;
-1 x35 -1 x37 +1 x195 >= -1 ;
+1 x35 -1 x196 >= 0 ;
+1 x38 -1 x196 >= 0 ;
-1 x35 -1 x38 +1 x196 >= -1 ;
+1 x36 -1 x197 >= 0 ;
+1 x37 -1 x197 >= 0 ;
-1 x36 -1 x37 +1 x197 >= -1 ;
+1 x36 -1 x198 >= 0 ;
+1 x38 -1 x198 >= 0 ;
-1 x36 -1 x38 +1 x198 >= -1 ;
+1 x37 -1 x199 >= 0 ;
+1 x39 -1 x199 >= 0 ;
-1 x37 -1 x39 +1 x199 >= -1 ;
+1 x37 -1 x200 >= 0 ;
+1 x40 -1 x200 >= 0 ;
-1 x37 -1 x40 +1 x200 >= -1 ;
+1 x38 -1 x201 >= 0 ;
+1 x39 -1 x201 >= 0 ;
-1 x38 -1 x39 +1 x201 >= -1 ;
+1 x38 -1 x202 >= 0 ;
+1 x40 -1 x202 >= 0 ;
-1 x38 -1 x40 +1 x202 >= -1 ;
+1 x39 -1 x203 >= 0 ;
+1 x41 -1 x203 >= 0 ;
-1 x39 -1 x41 +1 x203 >= -1 ;
+1 x39 -1 x204 >= 0 ;
+1 x42 -1 x204 >= 0 ;
-1 x39 -1 x42 +1 x204 >= -1 ;
+1 x40 -1 x205 >= 0 ;
+1 x41 -1 x205 >= 0 ;
-1 x40 -1 x41 +1 x205 >= -1 ;
+1 x40 -1 x206 >= 0 ;
+1 x42 -1 x206 >= 0 ;
-1 x40 -1 x42 +1 x206 >= -1 ;
+1 x41 -1 x207 >= 0 ;
+1 x1 -1 x207 >= 0 ;
-1 x41 -1 x1 +1 x207 >= -1 ;
+1 x41 -1 x208 >= 0 ;
+1 x2 -1 x208 >= 0 ;
-1 x41 -1 x2 +1 x208 >= -1 ;
+1 x42 -1 x209 >= 0 ;
+1 x1 -1 x209 >= 0 ;
-1 x42 -1 x1 +1 x209 >= -1 ;
+1 x42 -1 x210 >= 0 ;
+1 x2 -1 x210 >= 0 ;
-1 x42 -1 x2 +1 x210 >= -1 ;
+1 x1 -1 x211 >= 0 ;
+1 x5 -1 x211 >= 0 ;
-1 x1 -1 x5 +1 x211 >= -1 ;
+1 x1 -1 x212 >= 0 ;
+1 x6 -1 x212 >= 0 ;
-1 x1 -1 x6 +1 x212 >= -1 ;
+1 x2 -1 x213 >= 0 ;
+1 x5 -1 x213 >= 0 ;
-1 x2 -1 x5 +1 x213 >= -1 ;
+1 x2 -1 x214 >= 0 ;
+1 x6 -1 x214 >= 0 ;
-1 x2 -1 x6 +1 x214 >= -1 ;
+1 x3 -1 x215 >= 0 ;
+1 x7 -1 x215 >= 0 ;
-1 x3 -1 x7 +1 x215 >= -1 ;
+1 x3 -1 x216 >= 0 ;
+1 x8 -1 x216 >= 0 ;
-1 x3 -1 x8 +1 x216 >= -1 ;
+1 x4 -1 x217 >= 0 ;
+1 x7 -1 x217 >= 0 ;
-1 x4 -1 x7 +1 x217 >= -1 ;
+1 x4 -1 x218 >= 0 ;
+1 x8 -1 x218 >= 0 ;
-1 x4 -1 x8 +1 x218 >= -1 ;
+1 x5 -1 x219 >= 0 ;
+1 x9 -1 x219 >= 0 ;
-1 x5 -1 x9 +1 x219 >= -1 ;
+1 x5 -1 x220 >= 0 ;
+1 x10 -1 x220 >= 0 ;
-1 x5 -1 x10 +1 x220 >= -1 ;
+1 x6 -1 x221 >= 0 ;
+1 x9 -1 x221 >= 0 ;
-1 x6 -1 x9 +1 x221 >= -1 ;
+1 x6 -1 x222 >= 0 ;
+1 x10 -1 x222 >= 0 ;
-1 x6 -1 x10 +1 x222 >= -1 ;
+1 x7 -1 x223 >= 0 ;
+1 x11 -1 x223 >= 0 ;
-1 x7 -1 x11 +1 x223 >= -1 ;
+1 x7 -1 x224 >= 0 ;
+1 x12 -1 x224 >= 0 ;
-1 x7 -1 x12 +1 x224 >= -1 ;
+1 x8 -1 x225 >= 0 ;
+1 x11 -1 x225 >= 0 ;
-1 x8 -1 x11 +1 x225 >= -1 ;
+1 x8 -1 x226 >= 0 ;
+1 x12 -1 x226 >= 0 ;
-1 x8 -1 x12 +1 x226 >= -1 ;
+1 x9 -1 x227 >= 0 ;
+1 x13 -1 x227 >= 0 ;
-1 x9 -1 x13 +1 x227 >= -1 ;
+1 x9 -1 x228 >= 0 ;
+1 x14 -1 x228 >= 0 ;
-1 x9 -1 x14 +1 x228 >= -1 ;
+1 x10 -1 x229 >= 0 ;
+1 x13 -1 x229 >= 0 ;
-1 x10 -1 x13 +1 x229 >= -1 ;
+1 x10 -1 x230 >= 0 ;
+1 x14 -1 x230 >= 0 ;
-1 x10 -1 x14 +1 x230 >= -1 ;
+1 x11 -1 x231 >= 0 ;
+1 x15 -1 x231 >= 0 ;
-1 x11 -1 x15 +1 x231 >= -1 ;
+1 x11 -1 x232 >= 0 ;
+1 x16 -1 x232 >= 0 ;
-1 x11 -1 x16 +1 x232 >= -1 ;
+1 x12 -1 x233 >= 0 ;
+1 x15 -1 x233 >= 0 ;
-1 x12 -1 x15 +1 x233 >= -1 ;
+1 x12 -1 x234 >= 0 ;
+1 x16 -1 x234 >= 0 ;
-1 x12 -1 x16 +1 x234 >= -1 ;
+1 x13 -1 x235 >= 0 ;
+1 x17 -1 x235 >= 0 ;
-1 x13 -1 x17 +1 x235 >= -1 ;
+1 x13 -1 x236 >= 0 ;
+1 x18 -1 x236 >= 0 ;
-1 x13 -1 x18 +1 x236 >= -1 ;
+1 x14 -1 x237 >= 0 ;
+1 x17 -1 x237 >= 0 ;
-1 x14 -1 x17 +1 x237 >= -1 ;
+1 x14 -1 x238 >= 0 ;
+1 x18 -1 x238 >= 0 ;
-1 x14 -1 x18 +1 x238 >= -1 ;
+1 x15 -1 x239 >= 0 ;
+1 x19 -1 x239 >= 0 ;
-1 x15 -1 x19 +1 x239 >= -1 ;
+1 x15 -1 x240 >= 0 ;
+1 x20 -1 x240 >= 0 ;
-1 x15 -1 x20 +1 x240 >= -1 ;
+1 x16 -1 x241 >= 0 ;
+1 x19 -1 x241 >= 0 ;
-1 x16 -1 x19 +1 x241 >= -1 ;
+1 x16 -1 x242 >= 0 ;
+1 x20 -1 x242 >= 0 ;
-1 x16 -1 x20 +1 x242 >= -1 ;
+1 x17 -1 x243 >= 0 ;
+1 x21 -1 x243 >= 0 ;
-1 x17 -1 x21 +1 x243 >= -1 ;
+1 x17 -1 x244 >= 0 ;
+1 x22 -1 x244 >= 0 ;
-1 x17 -1 x22 +1 x244 >= -1 ;
+1 x18 -1 x245 >= 0 ;
+1 x21 -1 x245 >= 0 ;
-1 x18 -1 x21 +1 x245 >= -1 ;
+1 x18 -1 x246 >= 0 ;
+1 x22 -1 x246 >= 0 ;
-1 x18 -1 x22 +1 x246 >= -1 ;
+1 x19 -1 x247 >= 0 ;
+1 x23 -1 x247 >= 0 ;
-1 x19 -1 x23 +1 x247 >= -1 ;
+1 x19 -1 x248 >= 0 ;
+1 x24 -1 x248 >= 0 ;
-1 x19 -1 x24 +1 x248 >= -1 ;
+1 x20 -1 x249 >= 0 ;
+1 x23 -1 x249 >= 0 ;
-1 x20 -1 x23 +1 x249 >= -1 ;
+1 x20 -1 x250 >= 0 ;
+1 x24 -1 x250 >= 0 ;
-1 x20 -1 x24 +1 x250 >= -1 ;
+1 x21 -1 x251 >= 0 ;
+1 x25 -1 x251 >= 0 ;
-1 x21 -1 x25 +1 x251 >= -1 ;
+1 x21 -1 x252 >= 0 ;
+1 x26 -1 x252 >= 0 ;
-1 x21 -1 x26 +1 x252 >= -1 ;
+1 x22 -1 x253 >= 0 ;
+1 x25 -1 x253 >= 0 ;
-1 x22 -1 x25 +1 x253 >= -1 ;
+1 x22 -1 x254 >= 0 ;
+1 x26 -1 x254 >= 0 ;
-1 x22 -1 x26 +1 x254 >= -1 ;
+1 x23 -1 x255 >= 0 ;
+1 x27 -1 x255 >= 0 ;
-1 x23 -1 x27 +1 x255 >= -1 ;
+1 x23 -1 x256 >= 0 ;
+1 x28 -1 x256 >= 0 ;
-1 x23 -1 x28 +1 x256 >= -1 ;
+1 x24 -1 x257 >= 0 ;
+1 x27 -1 x257 >= 0 ;
-1 x24 -1 x27 +1 x257 >= -1 ;
+1 x24 -1 x258 >= 0 ;
+1 x28 -1 x258 >= 0 ;
-1 x24 -1 x28 +1 x258 >= -1 ;
+1 x25 -1 x259 >= 0 ;
+1 x29 -1 x259 >= 0 ;
-1 x25 -1 x29 +1 x259 >= -1 ;
+1 x25 -1 x260 >= 0 ;
+1 x30 -1 x260 >= 0 ;
-1 x25 -1 x30 +1 x260 >= -1 ;
+1 x26 -1 x261 >= 0 ;
+1 x29 -1 x261 >= 0 ;
-1 x26 -1 x29 +1 x261 >= -1 ;
+1 x26 -1 x262 >= 0 ;
+1 x30 -1 x262 >= 0 ;
-1 x26 -1 x30 +1 x262 >= -1 ;
+1 x27 -1 x263 >= 0 ;
+1 x31 -1 x263 >= 0 ;
-1 x27 -1 x31 +1 x263 >= -1 ;
+1 x27 -1 x264 >= 0 ;
+1 x32 -1 x264 >= 0 ;
-1 x27 -1 x32 +1 x264 >= -1 ;
+1 x28 -1 x265 >= 0 ;
+1 x31 -1 x265 >= 0 ;
-1 x28 -1 x31 +1 x265 >= -1 ;
+1 x28 -1 x266 >= 0 ;
+1 x32 -1 x266 >= 0 ;
-1 x28 -1 x32 +1 x266 >= -1 ;
+1 x29 -1 x267 >= 0 ;
+1 x33 -1 x267 >= 0 ;
-1 x29 -1 x33 +1 x267 >= -1 ;
+1 x29 -1 x268 >= 0 ;
+1 x34 -1 x268 >= 0 ;
-1 x29 -1 x34 +1 x268 >= -1 ;
+1 x30 -1 x269 >= 0 ;
+1 x33 -1 x269 >= 0 ;
-1 x30 -1 x33 +1 x269 >= -1 ;
+1 x30 -1 x270 >= 0 ;
+1 x34 -1 x270 >= 0 ;
-1 x30 -1 x34 +1 x270 >= -1 ;
+1 x31 -1 x271 >= 0 ;
+1 x35 -1 x271 >= 0 ;
-1 x31 -1 x35 +1 x271 >= -1 ;
+1 x31 -1 x272 >= 0 ;
+1 x36 -1 x272 >= 0 ;
-1 x31 -1 x36 +1 x272 >= -1 ;
+1 x32 -1 x273 >= 0 ;
+1 x35 -1 x273 >= 0 ;
-1 x32 -1 x35 +1 x273 >= -1 ;
+1 x32 -1 x274 >= 0 ;
+1 x36 -1 x274 >= 0 ;
-1 x32 -1 x36 +1 x274 >= -1 ;
+1 x33 -1 x275 >= 0 ;
+1 x37 -1 x275 >= 0 ;
-1 x33 -1 x37 +1 x275 >= -1 ;
+1 x33 -1 x276 >= 0 ;
+1 x38 -1 x276 >= 0 ;
-1 x33 -1 x38 +1 x276 >= -1 ;
+1 x34 -1 x277 >= 0 ;
+1 x37 -1 x277 >= 0 ;
-1 x34 -1 x37 +1 x277 >= -1 ;
+1 x34 -1 x278 >= 0 ;
+1 x38 -1 x278 >= 0 ;
-1 x34 -1 x38 +1 x278 >= -1 ;
+1 x35 -1 x279 >= 0 ;
+1 x39 -1 x279 >= 0 ;
-1 x35 -1 x39 +1 x279 >= -1 ;
+1 x35 -1 x280 >= 0 ;
+1 x40 -1 x280 >= 0 ;
-1 x35 -1 x40 +1 x280 >= -1 ;
+1 x36 -1 x281 >= 0 ;
+1 x39 -1 x281 >= 0 ;
-1 x36 -1 x39 +1 x281 >= -1 ;
+1 x36 -1 x282 >= 0 ;
+1 x40 -1 x282 >= 0 ;
-1 x36 -1 x40 +1 x282 >= -1 ;
+1 x37 -1 x283 >= 0 ;
+1 x41 -1 x283 >= 0 ;
-1 x37 -1 x41 +1 x283 >= -1 ;
+1 x37 -1 x284 >= 0 ;
+1 x42 -1 x284 >= 0 ;
-1 x37 -1 x42 +1 x284 >= -1 ;
+1 x38 -1 x285 >= 0 ;
+1 x41 -1 x285 >= 0 ;
-1 x38 -1 x41 +1 x285 >= -1 ;
+1 x38 -1 x286 >= 0 ;
+1 x42 -1 x286 >= 0 ;
-1 x38 -1 x42 +1 x286 >= -1 ;
+1 x39 -1 x287 >= 0 ;
+1 x1 -1 x287 >= 0 ;
-1 x39 -1 x1 +1 x287 >= -1 ;
+1 x39 -1 x288 >= 0 ;
+1 x2 -1 x288 >= 0 ;
-1 x39 -1 x2 +1 x288 >= -1 ;
+1 x40 -1 x289 >= 0 ;
+1 x1 -1 x289 >= 0 ;
-1 x40 -1 x1 +1 x289 >= -1 ;
+1 x40 -1 x290 >= 0 ;
+1 x2 -1 x290 >= 0 ;
-1 x40 -1 x2 +1 x290 >= -1 ;
+1 x41 -1 x291 >= 0 ;
+1 x3 -1 x291 >= 0 ;
-1 x41 -1 x3 +1 x291 >= -1 ;
+1 x41 -1 x292 >= 0 ;
+1 x4 -1 x292 >= 0 ;
-1 x41 -1 x4 +1 x292 >= -1 ;
+1 x42 -1 x293 >= 0 ;
+1 x3 -1 x293 >= 0 ;
-1 x42 -1 x3 +1 x293 >= -1 ;
+1 x42 -1 x294 >= 0 ;
+1 x4 -1 x294 >= 0 ;
-1 x42 -1 x4 +1 x294 >= -1 ;
+1 x1 -1 x295 >= 0 ;
+1 x7 -1 x295 >= 0 ;
-1 x1 -1 x7 +1 x295 >= -1 ;
+1 x1 -1 x296 >= 0 ;
+1 x8 -1 x296 >= 0 ;
-1 x1 -1 x8 +1 x296 >= -1 ;
+1 x2 -1 x297 >= 0 ;
+1 x7 -1 x297 >= 0 ;
-1 x2 -1 x7 +1 x297 >= -1 ;
+1 x2 -1 x298 >= 0 ;
+1 x8 -1 x298 >= 0 ;
-1 x2 -1 x8 +1 x298 >= -1 ;
+1 x3 -1 x299 >= 0 ;
+1 x9 -1 x299 >= 0 ;
-1 x3 -1 x9 +1 x299 >= -1 ;
+1 x3 -1 x300 >= 0 ;
+1 x10 -1 x300 >= 0 ;
-1 x3 -1 x10 +1 x300 >= -1 ;
+1 x4 -1 x301 >= 0 ;
+1 x9 -1 x301 >= 0 ;
-1 x4 -1 x9 +1 x301 >= -1 ;
+1 x4 -1 x302 >= 0 ;
+1 x10 -1 x302 >= 0 ;
-1 x4 -1 x10 +1 x302 >= -1 ;
+1 x5 -1 x303 >= 0 ;
+1 x11 -1 x303 >= 0 ;
-1 x5 -1 x11 +1 x303 >= -1 ;
+1 x5 -1 x304 >= 0 ;
+1 x12 -1 x304 >= 0 ;
-1 x5 -1 x12 +1 x304 >= -1 ;
+1 x6 -1 x305 >= 0 ;
+1 x11 -1 x305 >= 0 ;
-1 x6 -1 x11 +1 x305 >= -1 ;
+1 x6 -1 x306 >= 0 ;
+1 x12 -1 x306 >= 0 ;
-1 x6 -1 x12 +1 x306 >= -1 ;
+1 x7 -1 x307 >= 0 ;
+1 x13 -1 x307 >= 0 ;
-1 x7 -1 x13 +1 x307 >= -1 ;
+1 x7 -1 x308 >= 0 ;
+1 x14 -1 x308 >= 0 ;
-1 x7 -1 x14 +1 x308 >= -1 ;
+1 x8 -1 x309 >= 0 ;
+1 x13 -1 x309 >= 0 ;
-1 x8 -1 x13 +1 x309 >= -1 ;
+1 x8 -1 x310 >= 0 ;
+1 x14 -1 x310 >= 0 ;
-1 x8 -1 x14 +1 x310 >= -1 ;
+1 x9 -1 x311 >= 0 ;
+1 x15 -1 x311 >= 0 ;
-1 x9 -1 x15 +1 x311 >= -1 ;
+1 x9 -1 x312 >= 0 ;
+1 x16 -1 x312 >= 0 ;
-1 x9 -1 x16 +1 x312 >= -1 ;
+1 x10 -1 x313 >= 0 ;
+1 x15 -1 x313 >= 0 ;
-1 x10 -1 x15 +1 x313 >= -1 ;
+1 x10 -1 x314 >= 0 ;
+1 x16 -1 x314 >= 0 ;
-1 x10 -1 x16 +1 x314 >= -1 ;
+1 x11 -1 x315 >= 0 ;
+1 x17 -1 x315 >= 0 ;
-1 x11 -1 x17 +1 x315 >= -1 ;
+1 x11 -1 x316 >= 0 ;
+1 x18 -1 x316 >= 0 ;
-1 x11 -1 x18 +1 x316 >= -1 ;
+1 x12 -1 x317 >= 0 ;
+1 x17 -1 x317 >= 0 ;
-1 x12 -1 x17 +1 x317 >= -1 ;
+1 x12 -1 x318 >= 0 ;
+1 x18 -1 x318 >= 0 ;
-1 x12 -1 x18 +1 x318 >= -1 ;
+1 x13 -1 x319 >= 0 ;
+1 x19 -1 x319 >= 0 ;
-1 x13 -1 x19 +1 x319 >= -1 ;
+1 x13 -1 x320 >= 0 ;
+1 x20 -1 x320 >= 0 ;
-1 x13 -1 x20 +1 x320 >= -1 ;
+1 x14 -1 x321 >= 0 ;
+1 x19 -1 x321 >= 0 ;
-1 x14 -1 x19 +1 x321 >= -1 ;
+1 x14 -1 x322 >= 0 ;
+1 x20 -1 x322 >= 0 ;
-1 x14 -1 x20 +1 x322 >= -1 ;
+1 x15 -1 x323 >= 0 ;
+1 x21 -1 x323 >= 0 ;
-1 x15 -1 x21 +1 x323 >= -1 ;
+1 x15 -1 x324 >= 0 ;
+1 x22 -1 x324 >= 0 ;
-1 x15 -1 x22 +1 x324 >= -1 ;
+1 x16 -1 x325 >= 0 ;
+1 x21 -1 x325 >= 0 ;
-1 x16 -1 x21 +1 x325 >= -1 ;
+1 x16 -1 x326 >= 0 ;
+1 x22 -1 x326 >= 0 ;
-1 x16 -1 x22 +1 x326 >= -1 ;
+1 x17 -1 x327 >= 0 ;
+1 x23 -1 x327 >= 0 ;
-1 x17 -1 x23 +1 x327 >= -1 ;
+1 x17 -1 x328 >= 0 ;
+1 x24 -1 x328 >= 0 ;
-1 x17 -1 x24 +1 x328 >= -1 ;
+1 x18 -1 x329 >= 0 ;
+1 x23 -1 x329 >= 0 ;
-1 x18 -1 x23 +1 x329 >= -1 ;
+1 x18 -1 x330 >= 0 ;
+1 x24 -1 x330 >= 0 ;
-1 x18 -1 x24 +1 x330 >= -1 ;
+1 x19 -1 x331 >= 0 ;
+1 x25 -1 x331 >= 0 ;
-1 x19 -1 x25 +1 x331 >= -1 ;
+1 x19 -1 x332 >= 0 ;
+1 x26 -1 x332 >= 0 ;
-1 x19 -1 x26 +1 x332 >= -1 ;
+1 x20 -1 x333 >= 0 ;
+1 x25 -1 x333 >= 0 ;
-1 x20 -1 x25 +1 x333 >= -1 ;
+1 x20 -1 x334 >= 0 ;
+1 x26 -1 x334 >= 0 ;
-1 x20 -1 x26 +1 x334 >= -1 ;
+1 x21 -1 x335 >= 0 ;
+1 x27 -1 x335 >= 0 ;
-1 x21 -1 x27 +1 x335 >= -1 ;
+1 x21 -1 x336 >= 0 ;
+1 x28 -1 x336 >= 0 ;
-1 x21 -1 x28 +1 x336 >= -1 ;
+1 x22 -1 x337 >= 0 ;
+1 x27 -1 x337 >= 0 ;
-1 x22 -1 x27 +1 x337 >= -1 ;
+1 x22 -1 x338 >= 0 ;
+1 x28 -1 x338 >= 0 ;
-1 x22 -1 x28 +1 x338 >= -1 ;
+1 x23 -1 x339 >= 0 ;
+1 x29 -1 x339 >= 0 ;
-1 x23 -1 x29 +1 x339 >= -1 ;
+1 x23 -1 x340 >= 0 ;
+1 x30 -1 x340 >= 0 ;
-1 x23 -1 x30 +1 x340 >= -1 ;
+1 x24 -1 x341 >= 0 ;
+1 x29 -1 x341 >= 0 ;
-1 x24 -1 x29 +1 x341 >= -1 ;
+1 x24 -1 x342 >= 0 ;
+1 x30 -1 x342 >= 0 ;
-1 x24 -1 x30 +1 x342 >= -1 ;
+1 x25 -1 x343 >= 0 ;
+1 x31 -1 x343 >= 0 ;
-1 x25 -1 x31 +1 x343 >= -1 ;
+1 x25 -1 x344 >= 0 ;
+1 x32 -1 x344 >= 0 ;
-1 x25 -1 x32 +1 x344 >= -1 ;
+1 x26 -1 x345 >= 0 ;
+1 x31 -1 x345 >= 0 ;
-1 x26 -1 x31 +1 x345 >= -1 ;
+1 x26 -1 x346 >= 0 ;
+1 x32 -1 x346 >= 0 ;
-1 x26 -1 x32 +1 x346 >= -1 ;
+1 x27 -1 x347 >= 0 ;
+1 x33 -1 x347 >= 0 ;
-1 x27 -1 x33 +1 x347 >= -1 ;
+1 x27 -1 x348 >= 0 ;
+1 x34 -1 x348 >= 0 ;
-1 x27 -1 x34 +1 x348 >= -1 ;
+1 x28 -1 x349 >= 0 ;
+1 x33 -1 x349 >= 0 ;
-1 x28 -1 x33 +1 x349 >= -1 ;
+1 x28 -1 x350 >= 0 ;
+1 x34 -1 x350 >= 0 ;
-1 x28 -1 x34 +1 x350 >= -1 ;
+1 x29 -1 x351 >= 0 ;
+1 x35 -1 x351 >= 0 ;
-1 x29 -1 x35 +1 x351 >= -1 ;
+1 x29 -1 x352 >= 0 ;
+1 x36 -1 x352 >= 0 ;
-1 x29 -1 x36 +1 x352 >= -1 ;
+1 x30 -1 x353 >= 0 ;
+1 x35 -1 x353 >= 0 ;
-1 x30 -1 x35 +1 x353 >= -1 ;
+1 x30 -1 x354 >= 0 ;
+1 x36 -1 x354 >= 0 ;
-1 x30 -1 x36 +1 x354 >= -1 ;
+1 x31 -1 x355 >= 0 ;
+1 x37 -1 x355 >= 0 ;
-1 x31 -1 x37 +1 x355 >= -1 ;
+1 x31 -1 x356 >= 0 ;
+1 x38 -1 x356 >= 0 ;
-1 x31 -1 x38 +1 x356 >= -1 ;
+1 x32 -1 x357 >= 0 ;
+1 x37 -1 x357 >= 0 ;
-1 x32 -1 x37 +1 x357 >= -1 ;
+1 x32 -1 x358 >= 0 ;
+1 x38 -1 x358 >= 0 ;
-1 x32 -1 x38 +1 x358 >= -1 ;
+1 x33 -1 x359 >= 0 ;
+1 x39 -1 x359 >= 0 ;
-1 x33 -1 x39 +1 x359 >= -1 ;
+1 x33 -1 x360 >= 0 ;
+1 x40 -1 x360 >= 0 ;
-1 x33 -1 x40 +1 x360 >= -1 ;
+1 x34 -1 x361 >= 0 ;
+1 x39 -1 x361 >= 0 ;
-1 x34 -1 x39 +1 x361 >= -1 ;
+1 x34 -1 x362 >= 0 ;
+1 x40 -1 x362 >= 0 ;
-1 x34 -1 x40 +1 x362 >= -1 ;
+1 x35 -1 x363 >= 0 ;
+1 x41 -1 x363 >= 0 ;
-1 x35 -1 x41 +1 x363 >= -1 ;
+1 x35 -1 x364 >= 0 ;
+1 x42 -1 x364 >= 0 ;
-1 x35 -1 x42 +1 x364 >= -1 ;
+1 x36 -1 x365 >= 0 ;
+1 x41 -1 x365 >= 0 ;
-1 x36 -1 x41 +1 x365 >= -1 ;
+1 x36 -1 x366 >= 0 ;
+1 x42 -1 x366 >= 0 ;
-1 x36 -1 x42 +1 x366 >= -1 ;
+1 x37 -1 x367 >= 0 ;
+1 x1 -1 x367 >= 0 ;
-1 x37 -1 x1 +1 x367 >= -1 ;
+1 x37 -1 x368 >= 0 ;
+1 x2 -1 x368 >= 0 ;
-1 x37 -1 x2 +1 x368 >= -1 ;
+1 x38 -1 x369 >= 0 ;
+1 x1 -1 x369 >= 0 ;
-1 x38 -1 x1 +1 x369 >= -1 ;
+1 x38 -1 x370 >= 0 ;
+1 x2 -1 x370 >= 0 ;
-1 x38 -1 x2 +1 x370 >= -1 ;
+1 x39 -1 x371 >= 0 ;
+1 x3 -1 x371 >= 0 ;
-1 x39 -1 x3 +1 x371 >= -1 ;
+1 x39 -1 x372 >= 0 ;
+1 x4 -1 x372 >= 0 ;
-1 x39 -1 x4 +1 x372 >= -1 ;
+1 x40 -1 x373 >= 0 ;
+1 x3 -1 x373 >= 0 ;
-1 x40 -1 x3 +1 x373 >= -1 ;
+1 x40 -1 x374 >= 0 ;
+1 x4 -1 x374 >= 0 ;
-1 x40 -1 x4 +1 x374 >= -1 ;
+1 x41 -1 x375 >= 0 ;
+1 x5 -1 x375 >= 0 ;
-1 x41 -1 x5 +1 x375 >= -1 ;
+1 x41 -1 x376 >= 0 ;
+1 x6 -1 x376 >= 0 ;
-1 x41 -1 x6 +1 x376 >= -1 ;
+1 x42 -1 x377 >= 0 ;
+1 x5 -1 x377 >= 0 ;
-1 x42 -1 x5 +1 x377 >= -1 ;
+1 x42 -1 x378 >= 0 ;
+1 x6 -1 x378 >= 0 ;
-1 x42 -1 x6 +1 x378 >= -1 ;
+1 x1 -1 x379 >= 0 ;
+1 x9 -1 x379 >= 0 ;
-1 x1 -1 x9 +1 x379 >= -1 ;
+1 x1 -1 x380 >= 0 ;
+1 x10 -1 x380 >= 0 ;
-1 x1 -1 x10 +1 x380 >= -1 ;
+1 x2 -1 x381 >= 0 ;
+1 x9 -1 x381 >= 0 ;
-1 x2 -1 x9 +1 x381 >= -1 ;
+1 x2 -1 x382 >= 0 ;
+1 x10 -1 x382 >= 0 ;
-1 x2 -1 x10 +1 x382 >= -1 ;
+1 x3 -1 x383 >= 0 ;
+1 x11 -1 x383 >= 0 ;
-1 x3 -1 x11 +1 x383 >= -1 ;
+1 x3 -1 x384 >= 0 ;
+1 x12 -1 x384 >= 0 ;
-1 x3 -1 x12 +1 x384 >= -1 ;
+1 x4 -1 x385 >= 0 ;
+1 x11 -1 x385 >= 0 ;
-1 x4 -1 x11 +1 x385 >= -1 ;
+1 x4 -1 x386 >= 0 ;
+1 x12 -1 x386 >= 0 ;
-1 x4 -1 x12 +1 x386 >= -1 ;
+1 x5 -1 x387 >= 0 ;
+1 x13 -1 x387 >= 0 ;
-1 x5 -1 x13 +1 x387 >= -1 ;
+1 x5 -1 x388 >= 0 ;
+1 x14 -1 x388 >= 0 ;
-1 x5 -1 x14 +1 x388 >= -1 ;
+1 x6 -1 x389 >= 0 ;
+1 x13 -1 x389 >= 0 ;
-1 x6 -1 x13 +1 x389 >= -1 ;
+1 x6 -1 x390 >= 0 ;
+1 x14 -1 x390 >= 0 ;
-1 x6 -1 x14 +1 x390 >= -1 ;
+1 x7 -1 x391 >= 0 ;
+1 x15 -1 x391 >= 0 ;
-1 x7 -1 x15 +1 x391 >= -1 ;
+1 x7 -1 x392 >= 0 ;
+1 x16 -1 x392 >= 0 ;
-1 x7 -1 x16 +1 x392 >= -1 ;
+1 x8 -1 x393 >= 0 ;
+1 x15 -1 x393 >= 0 ;
-1 x8 -1 x15 +1 x393 >= -1 ;
+1 x8 -1 x394 >= 0 ;
+1 x16 -1 x394 >= 0 ;
-1 x8 -1 x16 +1 x394 >= -1 ;
+1 x9 -1 x395 >= 0 ;
+1 x17 -1 x395 >= 0 ;
-1 x9 -1 x17 +1 x395 >= -1 ;
+1 x9 -1 x396 >= 0 ;
+1 x18 -1 x396 >= 0 ;
-1 x9 -1 x18 +1 x396 >= -1 ;
+1 x10 -1 x397 >= 0 ;
+1 x17 -1 x397 >= 0 ;
-1 x10 -1 x17 +1 x397 >= -1 ;
+1 x10 -1 x398 >= 0 ;
+1 x18 -1 x398 >= 0 ;
-1 x10 -1 x18 +1 x398 >= -1 ;
+1 x11 -1 x399 >= 0 ;
+1 x19 -1 x399 >= 0 ;
-1 x11 -1 x19 +1 x399 >= -1 ;
+1 x11 -1 x400 >= 0 ;
+1 x20 -1 x400 >= 0 ;
-1 x11 -1 x20 +1 x400 >= -1 ;
+1 x12 -1 x401 >= 0 ;
+1 x19 -1 x401 >= 0 ;
-1 x12 -1 x19 +1 x401 >= -1 ;
+1 x12 -1 x402 >= 0 ;
+1 x20 -1 x402 >= 0 ;
-1 x12 -1 x20 +1 x402 >= -1 ;
+1 x13 -1 x403 >= 0 ;
+1 x21 -1 x403 >= 0 ;
-1 x13 -1 x21 +1 x403 >= -1 ;
+1 x13 -1 x404 >= 0 ;
+1 x22 -1 x404 >= 0 ;
-1 x13 -1 x22 +1 x404 >= -1 ;
+1 x14 -1 x405 >= 0 ;
+1 x21 -1 x405 >= 0 ;
-1 x14 -1 x21 +1 x405 >= -1 ;
+1 x14 -1 x406 >= 0 ;
+1 x22 -1 x406 >= 0 ;
-1 x14 -1 x22 +1 x406 >= -1 ;
+1 x15 -1 x407 >= 0 ;
+1 x23 -1 x407 >= 0 ;
-1 x15 -1 x23 +1 x407 >= -1 ;
+1 x15 -1 x408 >= 0 ;
+1 x24 -1 x408 >= 0 ;
-1 x15 -1 x24 +1 x408 >= -1 ;
+1 x16 -1 x409 >= 0 ;
+1 x23 -1 x409 >= 0 ;
-1 x16 -1 x23 +1 x409 >= -1 ;
+1 x16 -1 x410 >= 0 ;
+1 x24 -1 x410 >= 0 ;
-1 x16 -1 x24 +1 x410 >= -1 ;
+1 x17 -1 x411 >= 0 ;
+1 x25 -1 x411 >= 0 ;
-1 x17 -1 x25 +1 x411 >= -1 ;
+1 x17 -1 x412 >= 0 ;
+1 x26 -1 x412 >= 0 ;
-1 x17 -1 x26 +1 x412 >= -1 ;
+1 x18 -1 x413 >= 0 ;
+1 x25 -1 x413 >= 0 ;
-1 x18 -1 x25 +1 x413 >= -1 ;
+1 x18 -1 x414 >= 0 ;
+1 x26 -1 x414 >= 0 ;
-1 x18 -1 x26 +1 x414 >= -1 ;
+1 x19 -1 x415 >= 0 ;
+1 x27 -1 x415 >= 0 ;
-1 x19 -1 x27 +1 x415 >= -1 ;
+1 x19 -1 x416 >= 0 ;
+1 x28 -1 x416 >= 0 ;
-1 x19 -1 x28 +1 x416 >= -1 ;
+1 x20 -1 x417 >= 0 ;
+1 x27 -1 x417 >= 0 ;
-1 x20 -1 x27 +1 x417 >= -1 ;
+1 x20 -1 x418 >= 0 ;
+1 x28 -1 x418 >= 0 ;
-1 x20 -1 x28 +1 x418 >= -1 ;
+1 x21 -1 x419 >= 0 ;
+1 x29 -1 x419 >= 0 ;
-1 x21 -1 x29 +1 x419 >= -1 ;
+1 x21 -1 x420 >= 0 ;
+1 x30 -1 x420 >= 0 ;
-1 x21 -1 x30 +1 x420 >= -1 ;
+1 x22 -1 x421 >= 0 ;
+1 x29 -1 x421 >= 0 ;
-1 x22 -1 x29 +1 x421 >= -1 ;
+1 x22 -1 x422 >= 0 ;
+1 x30 -1 x422 >= 0 ;
-1 x22 -1 x30 +1 x422 >= -1 ;
+1 x23 -1 x423 >= 0 ;
+1 x31 -1 x423 >= 0 ;
-1 x23 -1 x31 +1 x423 >= -1 ;
+1 x23 -1 x424 >= 0 ;
+1 x32 -1 x424 >= 0 ;
-1 x23 -1 x32 +1 x424 >= -1 ;
+1 x24 -1 x425 >= 0 ;
+1 x31 -1 x425 >= 0 ;
-1 x24 -1 x31 +1 x425 >= -1 ;
+1 x24 -1 x426 >= 0 ;
+1 x32 -1 x426 >= 0 ;
-1 x24 -1 x32 +1 x426 >= -1 ;
+1 x25 -1 x427 >= 0 ;
+1 x33 -1 x427 >= 0 ;
-1 x25 -1 x33 +1 x427 >= -1 ;
+1 x25 -1 x428 >= 0 ;
+1 x34 -1 x428 >= 0 ;
-1 x25 -1 x34 +1 x428 >= -1 ;
+1 x26 -1 x429 >= 0 ;
+1 x33 -1 x429 >= 0 ;
-1 x26 -1 x33 +1 x429 >= -1 ;
+1 x26 -1 x430 >= 0 ;
+1 x34 -1 x430 >= 0 ;
-1 x26 -1 x34 +1 x430 >= -1 ;
+1 x27 -1 x431 >= 0 ;
+1 x35 -1 x431 >= 0 ;
-1 x27 -1 x35 +1 x431 >= -1 ;
+1 x27 -1 x432 >= 0 ;
+1 x36 -1 x432 >= 0 ;
-1 x27 -1 x36 +1 x432 >= -1 ;
+1 x28 -1 x433 >= 0 ;
+1 x35 -1 x433 >= 0 ;
-1 x28 -1 x35 +1 x433 >= -1 ;
+1 x28 -1 x434 >= 0 ;
+1 x36 -1 x434 >= 0 ;
-1 x28 -1 x36 +1 x434 >= -1 ;
+1 x29 -1 x435 >= 0 ;
+1 x37 -1 x435 >= 0 ;
-1 x29 -1 x37 +1 x435 >= -1 ;
+1 x29 -1 x436 >= 0 ;
+1 x38 -1 x436 >= 0 ;
-1 x29 -1 x38 +1 x436 >= -1 ;
+1 x30 -1 x437 >= 0 ;
+1 x37 -1 x437 >= 0 ;
-1 x30 -1 x37 +1 x437 >= -1 ;
+1 x30 -1 x438 >= 0 ;
+1 x38 -1 x438 >= 0 ;
-1 x30 -1 x38 +1 x438 >= -1 ;
+1 x31 -1 x439 >= 0 ;
+1 x39 -1 x439 >= 0 ;
-1 x31 -1 x39 +1 x439 >= -1 ;
+1 x31 -1 x440 >= 0 ;
+1 x40 -1 x440 >= 0 ;
-1 x31 -1 x40 +1 x440 >= -1 ;
+1 x32 -1 x441 >= 0 ;
+1 x39 -1 x441 >= 0 ;
-1 x32 -1 x39 +1 x441 >= -1 ;
+1 x32 -1 x442 >= 0 ;
+1 x40 -1 x442 >= 0 ;
-1 x32 -1 x40 +1 x442 >= -1 ;
+1 x33 -1 x443 >= 0 ;
+1 x41 -1 x443 >= 0 ;
-1 x33 -1 x41 +1 x443 >= -1 ;
+1 x33 -1 x444 >= 0 ;
+1 x42 -1 x444 >= 0 ;
-1 x33 -1 x42 +1 x444 >= -1 ;
+1 x34 -1 x445 >= 0 ;
+1 x41 -1 x445 >= 0 ;
-1 x34 -1 x41 +1 x445 >= -1 ;
+1 x34 -1 x446 >= 0 ;
+1 x42 -1 x446 >= 0 ;
-1 x34 -1 x42 +1 x446 >= -1 ;
+1 x35 -1 x447 >= 0 ;
+1 x1 -1 x447 >= 0 ;
-1 x35 -1 x1 +1 x447 >= -1 ;
+1 x35 -1 x448 >= 0 ;
+1 x2 -1 x448 >= 0 ;
-1 x35 -1 x2 +1 x448 >= -1 ;
+1 x36 -1 x449 >= 0 ;
+1 x1 -1 x449 >= 0 ;
-1 x36 -1 x1 +1 x449 >= -1 ;
+1 x36 -1 x450 >= 0 ;
+1 x2 -1 x450 >= 0 ;
-1 x36 -1 x2 +1 x450 >= -1 ;
+1 x37 -1 x451 >= 0 ;
+1 x3 -1 x451 >= 0 ;
-1 x37 -1 x3 +1 x451 >= -1 ;
+1 x37 -1 x452 >= 0 ;
+1 x4 -1 x452 >= 0 ;
-1 x37 -1 x4 +1 x452 >= -1 ;
+1 x38 -1 x453 >= 0 ;
+1 x3 -1 x453 >= 0 ;
-1 x38 -1 x3 +1 x453 >= -1 ;
+1 x38 -1 x454 >= 0 ;
+1 x4 -1 x454 >= 0 ;
-1 x38 -1 x4 +1 x454 >= -1 ;
+1 x39 -1 x455 >= 0 ;
+1 x5 -1 x455 >= 0 ;
-1 x39 -1 x5 +1 x455 >= -1 ;
+1 x39 -1 x456 >= 0 ;
+1 x6 -1 x456 >= 0 ;
-1 x39 -1 x6 +1 x456 >= -1 ;
+1 x40 -1 x457 >= 0 ;
+1 x5 -1 x457 >= 0 ;
-1 x40 -1 x5 +1 x457 >= -1 ;
+1 x40 -1 x458 >= 0 ;
+1 x6 -1 x458 >= 0 ;
-1 x40 -1 x6 +1 x458 >= -1 ;
+1 x41 -1 x459 >= 0 ;
+1 x7 -1 x459 >= 0 ;
-1 x41 -1 x7 +1 x459 >= -1 ;
+1 x41 -1 x460 >= 0 ;
+1 x8 -1 x460 >= 0 ;
-1 x41 -1 x8 +1 x460 >= -1 ;
+1 x42 -1 x461 >= 0 ;
+1 x7 -1 x461 >= 0 ;
-1 x42 -1 x7 +1 x461 >= -1 ;
+1 x42 -1 x462 >= 0 ;
+1 x8 -1 x462 >= 0 ;
-1 x42 -1 x8 +1 x462 >= -1 ;
+1 x1 -1 x463 >= 0 ;
+1 x11 -1 x463 >= 0 ;
-1 x1 -1 x11 +1 x463 >= -1 ;
+1 x1 -1 x464 >= 0 ;
+1 x12 -1 x464 >= 0 ;
-1 x1 -1 x12 +1 x464 >= -1 ;
+1 x2 -1 x465 >= 0 ;
+1 x11 -1 x465 >= 0 ;
-1 x2 -1 x11 +1 x465 >= -1 ;
+1 x2 -1 x466 >= 0 ;
+1 x12 -1 x466 >= 0 ;
-1 x2 -1 x12 +1 x466 >= -1 ;
+1 x3 -1 x467 >= 0 ;
+1 x13 -1 x467 >= 0 ;
-1 x3 -1 x13 +1 x467 >= -1 ;
+1 x3 -1 x468 >= 0 ;
+1 x14 -1 x468 >= 0 ;
-1 x3 -1 x14 +1 x468 >= -1 ;
+1 x4 -1 x469 >= 0 ;
+1 x13 -1 x469 >= 0 ;
-1 x4 -1 x13 +1 x469 >= -1 ;
+1 x4 -1 x470 >= 0 ;
+1 x14 -1 x470 >= 0 ;
-1 x4 -1 x14 +1 x470 >= -1 ;
+1 x5 -1 x471 >= 0 ;
+1 x15 -1 x471 >= 0 ;
-1 x5 -1 x15 +1 x471 >= -1 ;
+1 x5 -1 x472 >= 0 ;
+1 x16 -1 x472 >= 0 ;
-1 x5 -1 x16 +1 x472 >= -1 ;
+1 x6 -1 x473 >= 0 ;
+1 x15 -1 x473 >= 0 ;
-1 x6 -1 x15 +1 x473 >= -1 ;
+1 x6 -1 x474 >= 0 ;
+1 x16 -1 x474 >= 0 ;
-1 x6 -1 x16 +1 x474 >= -1 ;
+1 x7 -1 x475 >= 0 ;
+1 x17 -1 x475 >= 0 ;
-1 x7 -1 x17 +1 x475 >= -1 ;
+1 x7 -1 x476 >= 0 ;
+1 x18 -1 x476 >= 0 ;
-1 x7 -1 x18 +1 x476 >= -1 ;
+1 x8 -1 x477 >= 0 ;
+1 x17 -1 x477 >= 0 ;
-1 x8 -1 x17 +1 x477 >= -1 ;
+1 x8 -1 x478 >= 0 ;
+1 x18 -1 x478 >= 0 ;
-1 x8 -1 x18 +1 x478 >= -1 ;
+1 x9 -1 x479 >= 0 ;
+1 x19 -1 x479 >= 0 ;
-1 x9 -1 x19 +1 x479 >= -1 ;
+1 x9 -1 x480 >= 0 ;
+1 x20 -1 x480 >= 0 ;
-1 x9 -1 x20 +1 x480 >= -1 ;
+1 x10 -1 x481 >= 0 ;
+1 x19 -1 x481 >= 0 ;
-1 x10 -1 x19 +1 x481 >= -1 ;
+1 x10 -1 x482 >= 0 ;
+1 x20 -1 x482 >= 0 ;
-1 x10 -1 x20 +1 x482 >= -1 ;
+1 x11 -1 x483 >= 0 ;
+1 x21 -1 x483 >= 0 ;
-1 x11 -1 x21 +1 x483 >= -1 ;
+1 x11 -1 x484 >= 0 ;
+1 x22 -1 x484 >= 0 ;
-1 x11 -1 x22 +1 x484 >= -1 ;
+1 x12 -1 x485 >= 0 ;
+1 x21 -1 x485 >= 0 ;
-1 x12 -1 x21 +1 x485 >= -1 ;
+1 x12 -1 x486 >= 0 ;
+1 x22 -1 x486 >= 0 ;
-1 x12 -1 x22 +1 x486 >= -1 ;
+1 x13 -1 x487 >= 0 ;
+1 x23 -1 x487 >= 0 ;
-1 x13 -1 x23 +1 x487 >= -1 ;
+1 x13 -1 x488 >= 0 ;
+1 x24 -1 x488 >= 0 ;
-1 x13 -1 x24 +1 x488 >= -1 ;
+1 x14 -1 x489 >= 0 ;
+1 x23 -1 x489 >= 0 ;
-1 x14 -1 x23 +1 x489 >= -1 ;
+1 x14 -1 x490 >= 0 ;
+1 x24 -1 x490 >= 0 ;
-1 x14 -1 x24 +1 x490 >= -1 ;
+1 x15 -1 x491 >= 0 ;
+1 x25 -1 x491 >= 0 ;
-1 x15 -1 x25 +1 x491 >= -1 ;
+1 x15 -1 x492 >= 0 ;
+1 x26 -1 x492 >= 0 ;
-1 x15 -1 x26 +1 x492 >= -1 ;
+1 x16 -1 x493 >= 0 ;
+1 x25 -1 x493 >= 0 ;
-1 x16 -1 x25 +1 x493 >= -1 ;
+1 x16 -1 x494 >= 0 ;
+1 x26 -1 x494 >= 0 ;
-1 x16 -1 x26 +1 x494 >= -1 ;
+1 x17 -1 x495 >= 0 ;
+1 x27 -1 x495 >= 0 ;
-1 x17 -1 x27 +1 x495 >= -1 ;
+1 x17 -1 x496 >= 0 ;
+1 x28 -1 x496 >= 0 ;
-1 x17 -1 x28 +1 x496 >= -1 ;
+1 x18 -1 x497 >= 0 ;
+1 x27 -1 x497 >= 0 ;
-1 x18 -1 x27 +1 x497 >= -1 ;
+1 x18 -1 x498 >= 0 ;
+1 x28 -1 x498 >= 0 ;
-1 x18 -1 x28 +1 x498 >= -1 ;
+1 x19 -1 x499 >= 0 ;
+1 x29 -1 x499 >= 0 ;
-1 x19 -1 x29 +1 x499 >= -1 ;
+1 x19 -1 x500 >= 0 ;
+1 x30 -1 x500 >= 0 ;
-1 x19 -1 x30 +1 x500 >= -1 ;
+1 x20 -1 x501 >= 0 ;
+1 x29 -1 x501 >= 0 ;
-1 x20 -1 x29 +1 x501 >= -1 ;
+1 x20 -1 x502 >= 0 ;
+1 x30 -1 x502 >= 0 ;
-1 x20 -1 x30 +1 x502 >= -1 ;
+1 x21 -1 x503 >= 0 ;
+1 x31 -1 x503 >= 0 ;
-1 x21 -1 x31 +1 x503 >= -1 ;
+1 x21 -1 x504 >= 0 ;
+1 x32 -1 x504 >= 0 ;
-1 x21 -1 x32 +1 x504 >= -1 ;
+1 x22 -1 x505 >= 0 ;
+1 x31 -1 x505 >= 0 ;
-1 x22 -1 x31 +1 x505 >= -1 ;
+1 x22 -1 x506 >= 0 ;
+1 x32 -1 x506 >= 0 ;
-1 x22 -1 x32 +1 x506 >= -1 ;
+1 x23 -1 x507 >= 0 ;
+1 x33 -1 x507 >= 0 ;
-1 x23 -1 x33 +1 x507 >= -1 ;
+1 x23 -1 x508 >= 0 ;
+1 x34 -1 x508 >= 0 ;
-1 x23 -1 x34 +1 x508 >= -1 ;
+1 x24 -1 x509 >= 0 ;
+1 x33 -1 x509 >= 0 ;
-1 x24 -1 x33 +1 x509 >= -1 ;
+1 x24 -1 x510 >= 0 ;
+1 x34 -1 x510 >= 0 ;
-1 x24 -1 x34 +1 x510 >= -1 ;
+1 x25 -1 x511 >= 0 ;
+1 x35 -1 x511 >= 0 ;
-1 x25 -1 x35 +1 x511 >= -1 ;
+1 x25 -1 x512 >= 0 ;
+1 x36 -1 x512 >= 0 ;
-1 x25 -1 x36 +1 x512 >= -1 ;
+1 x26 -1 x513 >= 0 ;
+1 x35 -1 x513 >= 0 ;
-1 x26 -1 x35 +1 x513 >= -1 ;
+1 x26 -1 x514 >= 0 ;
+1 x36 -1 x514 >= 0 ;
-1 x26 -1 x36 +1 x514 >= -1 ;
+1 x27 -1 x515 >= 0 ;
+1 x37 -1 x515 >= 0 ;
-1 x27 -1 x37 +1 x515 >= -1 ;
+1 x27 -1 x516 >= 0 ;
+1 x38 -1 x516 >= 0 ;
-1 x27 -1 x38 +1 x516 >= -1 ;
+1 x28 -1 x517 >= 0 ;
+1 x37 -1 x517 >= 0 ;
-1 x28 -1 x37 +1 x517 >= -1 ;
+1 x28 -1 x518 >= 0 ;
+1 x38 -1 x518 >= 0 ;
-1 x28 -1 x38 +1 x518 >= -1 ;
+1 x29 -1 x519 >= 0 ;
+1 x39 -1 x519 >= 0 ;
-1 x29 -1 x39 +1 x519 >= -1 ;
+1 x29 -1 x520 >= 0 ;
+1 x40 -1 x520 >= 0 ;
-1 x29 -1 x40 +1 x520 >= -1 ;
+1 x30 -1 x521 >= 0 ;
+1 x39 -1 x521 >= 0 ;
-1 x30 -1 x39 +1 x521 >= -1 ;
+1 x30 -1 x522 >= 0 ;
+1 x40 -1 x522 >= 0 ;
-1 x30 -1 x40 +1 x522 >= -1 ;
+1 x31 -1 x523 >= 0 ;
+1 x41 -1 x523 >= 0 ;
-1 x31 -1 x41 +1 x523 >= -1 ;
+1 x31 -1 x524 >= 0 ;
+1 x42 -1 x524 >= 0 ;
-1 x31 -1 x42 +1 x524 >= -1 ;
+1 x32 -1 x525 >= 0 ;
+1 x41 -1 x525 >= 0 ;
-1 x32 -1 x41 +1 x525 >= -1 ;
+1 x32 -1 x526 >= 0 ;
+1 x42 -1 x526 >= 0 ;
-1 x32 -1 x42 +1 x526 >= -1 ;
+1 x33 -1 x527 >= 0 ;
+1 x1 -1 x527 >= 0 ;
-1 x33 -1 x1 +1 x527 >= -1 ;
+1 x33 -1 x528 >= 0 ;
+1 x2 -1 x528 >= 0 ;
-1 x33 -1 x2 +1 x528 >= -1 ;
+1 x34 -1 x529 >= 0 ;
+1 x1 -1 x529 >= 0 ;
-1 x34 -1 x1 +1 x529 >= -1 ;
+1 x34 -1 x530 >= 0 ;
+1 x2 -1 x530 >= 0 ;
-1 x34 -1 x2 +1 x530 >= -1 ;
+1 x35 -1 x531 >= 0 ;
+1 x3 -1 x531 >= 0 ;
-1 x35 -1 x3 +1 x531 >= -1 ;
+1 x35 -1 x532 >= 0 ;
+1 x4 -1 x532 >= 0 ;
-1 x35 -1 x4 +1 x532 >= -1 ;
+1 x36 -1 x533 >= 0 ;
+1 x3 -1 x533 >= 0 ;
-1 x36 -1 x3 +1 x533 >= -1 ;
+1 x36 -1 x534 >= 0 ;
+1 x4 -1 x534 >= 0 ;
-1 x36 -1 x4 +1 x534 >= -1 ;
+1 x37 -1 x535 >= 0 ;
+1 x5 -1 x535 >= 0 ;
-1 x37 -1 x5 +1 x535 >= -1 ;
+1 x37 -1 x536 >= 0 ;
+1 x6 -1 x536 >= 0 ;
-1 x37 -1 x6 +1 x536 >= -1 ;
+1 x38 -1 x537 >= 0 ;
+1 x5 -1 x537 >= 0 ;
-1 x38 -1 x5 +1 x537 >= -1 ;
+1 x38 -1 x538 >= 0 ;
+1 x6 -1 x538 >= 0 ;
-1 x38 -1 x6 +1 x538 >= -1 ;
+1 x39 -1 x539 >= 0 ;
+1 x7 -1 x539 >= 0 ;
-1 x39 -1 x7 +1 x539 >= -1 ;
+1 x39 -1 x540 >= 0 ;
+1 x8 -1 x540 >= 0 ;
-1 x39 -1 x8 +1 x540 >= -1 ;
+1 x40 -1 x541 >= 0 ;
+1 x7 -1 x541 >= 0 ;
-1 x40 -1 x7 +1 x541 >= -1 ;
+1 x40 -1 x542 >= 0 ;
+1 x8 -1 x542 >= 0 ;
-1 x40 -1 x8 +1 x542 >= -1 ;
+1 x41 -1 x543 >= 0 ;
+1 x9 -1 x543 >= 0 ;
-1 x41 -1 x9 +1 x543 >= -1 ;
+1 x41 -1 x544 >= 0 ;
+1 x10 -1 x544 >= 0 ;
-1 x41 -1 x10 +1 x544 >= -1 ;
+1 x42 -1 x545 >= 0 ;
+1 x9 -1 x545 >= 0 ;
-1 x42 -1 x9 +1 x545 >= -1 ;
+1 x42 -1 x546 >= 0 ;
+1 x10 -1 x546 >= 0 ;
-1 x42 -1 x10 +1 x546 >= -1 ;
+1 x1 -1 x547 >= 0 ;
+1 x13 -1 x547 >= 0 ;
-1 x1 -1 x13 +1 x547 >= -1 ;
+1 x1 -1 x548 >= 0 ;
+1 x14 -1 x548 >= 0 ;
-1 x1 -1 x14 +1 x548 >= -1 ;
+1 x2 -1 x549 >= 0 ;
+1 x13 -1 x549 >= 0 ;
-1 x2 -1 x13 +1 x549 >= -1 ;
+1 x2 -1 x550 >= 0 ;
+1 x14 -1 x550 >= 0 ;
-1 x2 -1 x14 +1 x550 >= -1 ;
+1 x3 -1 x551 >= 0 ;
+1 x15 -1 x551 >= 0 ;
-1 x3 -1 x15 +1 x551 >= -1 ;
+1 x3 -1 x552 >= 0 ;
+1 x16 -1 x552 >= 0 ;
-1 x3 -1 x16 +1 x552 >= -1 ;
+1 x4 -1 x553 >= 0 ;
+1 x15 -1 x553 >= 0 ;
-1 x4 -1 x15 +1 x553 >= -1 ;
+1 x4 -1 x554 >= 0 ;
+1 x16 -1 x554 >= 0 ;
-1 x4 -1 x16 +1 x554 >= -1 ;
+1 x5 -1 x555 >= 0 ;
+1 x17 -1 x555 >= 0 ;
-1 x5 -1 x17 +1 x555 >= -1 ;
+1 x5 -1 x556 >= 0 ;
+1 x18 -1 x556 >= 0 ;
-1 x5 -1 x18 +1 x556 >= -1 ;
+1 x6 -1 x557 >= 0 ;
+1 x17 -1 x557 >= 0 ;
-1 x6 -1 x17 +1 x557 >= -1 ;
+1 x6 -1 x558 >= 0 ;
+1 x18 -1 x558 >= 0 ;
-1 x6 -1 x18 +1 x558 >= -1 ;
+1 x7 -1 x559 >= 0 ;
+1 x19 -1 x559 >= 0 ;
-1 x7 -1 x19 +1 x559 >= -1 ;
+1 x7 -1 x560 >= 0 ;
+1 x20 -1 x560 >= 0 ;
-1 x7 -1 x20 +1 x560 >= -1 ;
+1 x8 -1 x561 >= 0 ;
+1 x19 -1 x561 >= 0 ;
-1 x8 -1 x19 +1 x561 >= -1 ;
+1 x8 -1 x562 >= 0 ;
+1 x20 -1 x562 >= 0 ;
-1 x8 -1 x20 +1 x562 >= -1 ;
+1 x9 -1 x563 >= 0 ;
+1 x21 -1 x563 >= 0 ;
-1 x9 -1 x21 +1 x563 >= -1 ;
+1 x9 -1 x564 >= 0 ;
+1 x22 -1 x564 >= 0 ;
-1 x9 -1 x22 +1 x564 >= -1 ;
+1 x10 -1 x565 >= 0 ;
+1 x21 -1 x565 >= 0 ;
-1 x10 -1 x21 +1 x565 >= -1 ;
+1 x10 -1 x566 >= 0 ;
+1 x22 -1 x566 >= 0 ;
-1 x10 -1 x22 +1 x566 >= -1 ;
+1 x11 -1 x567 >= 0 ;
+1 x23 -1 x567 >= 0 ;
-1 x11 -1 x23 +1 x567 >= -1 ;
+1 x11 -1 x568 >= 0 ;
+1 x24 -1 x568 >= 0 ;
-1 x11 -1 x24 +1 x568 >= -1 ;
+1 x12 -1 x569 >= 0 ;
+1 x23 -1 x569 >= 0 ;
-1 x12 -1 x23 +1 x569 >= -1 ;
+1 x12 -1 x570 >= 0 ;
+1 x24 -1 x570 >= 0 ;
-1 x12 -1 x24 +1 x570 >= -1 ;
+1 x13 -1 x571 >= 0 ;
+1 x25 -1 x571 >= 0 ;
-1 x13 -1 x25 +1 x571 >= -1 ;
+1 x13 -1 x572 >= 0 ;
+1 x26 -1 x572 >= 0 ;
-1 x13 -1 x26 +1 x572 >= -1 ;
+1 x14 -1 x573 >= 0 ;
+1 x25 -1 x573 >= 0 ;
-1 x14 -1 x25 +1 x573 >= -1 ;
+1 x14 -1 x574 >= 0 ;
+1 x26 -1 x574 >= 0 ;
-1 x14 -1 x26 +1 x574 >= -1 ;
+1 x15 -1 x575 >= 0 ;
+1 x27 -1 x575 >= 0 ;
-1 x15 -1 x27 +1 x575 >= -1 ;
+1 x15 -1 x576 >= 0 ;
+1 x28 -1 x576 >= 0 ;
-1 x15 -1 x28 +1 x576 >= -1 ;
+1 x16 -1 x577 >= 0 ;
+1 x27 -1 x577 >= 0 ;
-1 x16 -1 x27 +1 x577 >= -1 ;
+1 x16 -1 x578 >= 0 ;
+1 x28 -1 x578 >= 0 ;
-1 x16 -1 x28 +1 x578 >= -1 ;
+1 x17 -1 x579 >= 0 ;
+1 x29 -1 x579 >= 0 ;
-1 x17 -1 x29 +1 x579 >= -1 ;
+1 x17 -1 x580 >= 0 ;
+1 x30 -1 x580 >= 0 ;
-1 x17 -1 x30 +1 x580 >= -1 ;
+1 x18 -1 x581 >= 0 ;
+1 x29 -1 x581 >= 0 ;
-1 x18 -1 x29 +1 x581 >= -1 ;
+1 x18 -1 x582 >= 0 ;
+1 x30 -1 x582 >= 0 ;
-1 x18 -1 x30 +1 x582 >= -1 ;
+1 x19 -1 x583 >= 0 ;
+1 x31 -1 x583 >= 0 ;
-1 x19 -1 x31 +1 x583 >= -1 ;
+1 x19 -1 x584 >= 0 ;
+1 x32 -1 x584 >= 0 ;
-1 x19 -1 x32 +1 x584 >= -1 ;
+1 x20 -1 x585 >= 0 ;
+1 x31 -1 x585 >= 0 ;
-1 x20 -1 x31 +1 x585 >= -1 ;
+1 x20 -1 x586 >= 0 ;
+1 x32 -1 x586 >= 0 ;
-1 x20 -1 x32 +1 x586 >= -1 ;
+1 x21 -1 x587 >= 0 ;
+1 x33 -1 x587 >= 0 ;
-1 x21 -1 x33 +1 x587 >= -1 ;
+1 x21 -1 x588 >= 0 ;
+1 x34 -1 x588 >= 0 ;
-1 x21 -1 x34 +1 x588 >= -1 ;
+1 x22 -1 x589 >= 0 ;
+1 x33 -1 x589 >= 0 ;
-1 x22 -1 x33 +1 x589 >= -1 ;
+1 x22 -1 x590 >= 0 ;
+1 x34 -1 x590 >= 0 ;
-1 x22 -1 x34 +1 x590 >= -1 ;
+1 x23 -1 x591 >= 0 ;
+1 x35 -1 x591 >= 0 ;
-1 x23 -1 x35 +1 x591 >= -1 ;
+1 x23 -1 x592 >= 0 ;
+1 x36 -1 x592 >= 0 ;
-1 x23 -1 x36 +1 x592 >= -1 ;
+1 x24 -1 x593 >= 0 ;
+1 x35 -1 x593 >= 0 ;
-1 x24 -1 x35 +1 x593 >= -1 ;
+1 x24 -1 x594 >= 0 ;
+1 x36 -1 x594 >= 0 ;
-1 x24 -1 x36 +1 x594 >= -1 ;
+1 x25 -1 x595 >= 0 ;
+1 x37 -1 x595 >= 0 ;
-1 x25 -1 x37 +1 x595 >= -1 ;
+1 x25 -1 x596 >= 0 ;
+1 x38 -1 x596 >= 0 ;
-1 x25 -1 x38 +1 x596 >= -1 ;
+1 x26 -1 x597 >= 0 ;
+1 x37 -1 x597 >= 0 ;
-1 x26 -1 x37 +1 x597 >= -1 ;
+1 x26 -1 x598 >= 0 ;
+1 x38 -1 x598 >= 0 ;
-1 x26 -1 x38 +1 x598 >= -1 ;
+1 x27 -1 x599 >= 0 ;
+1 x39 -1 x599 >= 0 ;
-1 x27 -1 x39 +1 x599 >= -1 ;
+1 x27 -1 x600 >= 0 ;
+1 x40 -1 x600 >= 0 ;
-1 x27 -1 x40 +1 x600 >= -1 ;
+1 x28 -1 x601 >= 0 ;
+1 x39 -1 x601 >= 0 ;
-1 x28 -1 x39 +1 x601 >= -1 ;
+1 x28 -1 x602 >= 0 ;
+1 x40 -1 x602 >= 0 ;
-1 x28 -1 x40 +1 x602 >= -1 ;
+1 x29 -1 x603 >= 0 ;
+1 x41 -1 x603 >= 0 ;
-1 x29 -1 x41 +1 x603 >= -1 ;
+1 x29 -1 x604 >= 0 ;
+1 x42 -1 x604 >= 0 ;
-1 x29 -1 x42 +1 x604 >= -1 ;
+1 x30 -1 x605 >= 0 ;
+1 x41 -1 x605 >= 0 ;
-1 x30 -1 x41 +1 x605 >= -1 ;
+1 x30 -1 x606 >= 0 ;
+1 x42 -1 x606 >= 0 ;
-1 x30 -1 x42 +1 x606 >= -1 ;
+1 x31 -1 x607 >= 0 ;
+1 x1 -1 x607 >= 0 ;
-1 x31 -1 x1 +1 x607 >= -1 ;
+1 x31 -1 x608 >= 0 ;
+1 x2 -1 x608 >= 0 ;
-1 x31 -1 x2 +1 x608 >= -1 ;
+1 x32 -1 x609 >= 0 ;
+1 x1 -1 x609 >= 0 ;
-1 x32 -1 x1 +1 x609 >= -1 ;
+1 x32 -1 x610 >= 0 ;
+1 x2 -1 x610 >= 0 ;
-1 x32 -1 x2 +1 x610 >= -1 ;
+1 x33 -1 x611 >= 0 ;
+1 x3 -1 x611 >= 0 ;
-1 x33 -1 x3 +1 x611 >= -1 ;
+1 x33 -1 x612 >= 0 ;
+1 x4 -1 x612 >= 0 ;
-1 x33 -1 x4 +1 x612 >= -1 ;
+1 x34 -1 x613 >= 0 ;
+1 x3 -1 x613 >= 0 ;
-1 x34 -1 x3 +1 x613 >= -1 ;
+1 x34 -1 x614 >= 0 ;
+1 x4 -1 x614 >= 0 ;
-1 x34 -1 x4 +1 x614 >= -1 ;
+1 x35 -1 x615 >= 0 ;
+1 x5 -1 x615 >= 0 ;
-1 x35 -1 x5 +1 x615 >= -1 ;
+1 x35 -1 x616 >= 0 ;
+1 x6 -1 x616 >= 0 ;
-1 x35 -1 x6 +1 x616 >= -1 ;
+1 x36 -1 x617 >= 0 ;
+1 x5 -1 x617 >= 0 ;
-1 x36 -1 x5 +1 x617 >= -1 ;
+1 x36 -1 x618 >= 0 ;
+1 x6 -1 x618 >= 0 ;
-1 x36 -1 x6 +1 x618 >= -1 ;
+1 x37 -1 x619 >= 0 ;
+1 x7 -1 x619 >= 0 ;
-1 x37 -1 x7 +1 x619 >= -1 ;
+1 x37 -1 x620 >= 0 ;
+1 x8 -1 x620 >= 0 ;
-1 x37 -1 x8 +1 x620 >= -1 ;
+1 x38 -1 x621 >= 0 ;
+1 x7 -1 x621 >= 0 ;
-1 x38 -1 x7 +1 x621 >= -1 ;
+1 x38 -1 x622 >= 0 ;
+1 x8 -1 x622 >= 0 ;
-1 x38 -1 x8 +1 x622 >= -1 ;
+1 x39 -1 x623 >= 0 ;
+1 x9 -1 x623 >= 0 ;
-1 x39 -1 x9 +1 x623 >= -1 ;
+1 x39 -1 x624 >= 0 ;
+1 x10 -1 x624 >= 0 ;
-1 x39 -1 x10 +1 x624 >= -1 ;
+1 x40 -1 x625 >= 0 ;
+1 x9 -1 x625 >= 0 ;
-1 x40 -1 x9 +1 x625 >= -1 ;
+1 x40 -1 x626 >= 0 ;
+1 x10 -1 x626 >= 0 ;
-1 x40 -1 x10 +1 x626 >= -1 ;
+1 x41 -1 x627 >= 0 ;
+1 x11 -1 x627 >= 0 ;
-1 x41 -1 x11 +1 x627 >= -1 ;
+1 x41 -1 x628 >= 0 ;
+1 x12 -1 x628 >= 0 ;
-1 x41 -1 x12 +1 x628 >= -1 ;
+1 x42 -1 x629 >= 0 ;
+1 x11 -1 x629 >= 0 ;
-1 x42 -1 x11 +1 x629 >= -1 ;
+1 x42 -1 x630 >= 0 ;
+1 x12 -1 x630 >= 0 ;
-1 x42 -1 x12 +1 x630 >= -1 ;
+1 x1 -1 x631 >= 0 ;
+1 x15 -1 x631 >= 0 ;
-1 x1 -1 x15 +1 x631 >= -1 ;
+1 x1 -1 x632 >= 0 ;
+1 x16 -1 x632 >= 0 ;
-1 x1 -1 x16 +1 x632 >= -1 ;
+1 x2 -1 x633 >= 0 ;
+1 x15 -1 x633 >= 0 ;
-1 x2 -1 x15 +1 x633 >= -1 ;
+1 x2 -1 x634 >= 0 ;
+1 x16 -1 x634 >= 0 ;
-1 x2 -1 x16 +1 x634 >= -1 ;
+1 x3 -1 x635 >= 0 ;
+1 x17 -1 x635 >= 0 ;
-1 x3 -1 x17 +1 x635 >= -1 ;
+1 x3 -1 x636 >= 0 ;
+1 x18 -1 x636 >= 0 ;
-1 x3 -1 x18 +1 x636 >= -1 ;
+1 x4 -1 x637 >= 0 ;
+1 x17 -1 x637 >= 0 ;
-1 x4 -1 x17 +1 x637 >= -1 ;
+1 x4 -1 x638 >= 0 ;
+1 x18 -1 x638 >= 0 ;
-1 x4 -1 x18 +1 x638 >= -1 ;
+1 x5 -1 x639 >= 0 ;
+1 x19 -1 x639 >= 0 ;
-1 x5 -1 x19 +1 x639 >= -1 ;
+1 x5 -1 x640 >= 0 ;
+1 x20 -1 x640 >= 0 ;
-1 x5 -1 x20 +1 x640 >= -1 ;
+1 x6 -1 x641 >= 0 ;
+1 x19 -1 x641 >= 0 ;
-1 x6 -1 x19 +1 x641 >= -1 ;
+1 x6 -1 x642 >= 0 ;
+1 x20 -1 x642 >= 0 ;
-1 x6 -1 x20 +1 x642 >= -1 ;
+1 x7 -1 x643 >= 0 ;
+1 x21 -1 x643 >= 0 ;
-1 x7 -1 x21 +1 x643 >= -1 ;
+1 x7 -1 x644 >= 0 ;
+1 x22 -1 x644 >= 0 ;
-1 x7 -1 x22 +1 x644 >= -1 ;
+1 x8 -1 x645 >= 0 ;
+1 x21 -1 x645 >= 0 ;
-1 x8 -1 x21 +1 x645 >= -1 ;
+1 x8 -1 x646 >= 0 ;
+1 x22 -1 x646 >= 0 ;
-1 x8 -1 x22 +1 x646 >= -1 ;
+1 x9 -1 x647 >= 0 ;
+1 x23 -1 x647 >= 0 ;
-1 x9 -1 x23 +1 x647 >= -1 ;
+1 x9 -1 x648 >= 0 ;
+1 x24 -1 x648 >= 0 ;
-1 x9 -1 x24 +1 x648 >= -1 ;
+1 x10 -1 x649 >= 0 ;
+1 x23 -1 x649 >= 0 ;
-1 x10 -1 x23 +1 x649 >= -1 ;
+1 x10 -1 x650 >= 0 ;
+1 x24 -1 x650 >= 0 ;
-1 x10 -1 x24 +1 x650 >= -1 ;
+1 x11 -1 x651 >= 0 ;
+1 x25 -1 x651 >= 0 ;
-1 x11 -1 x25 +1 x651 >= -1 ;
+1 x11 -1 x652 >= 0 ;
+1 x26 -1 x652 >= 0 ;
-1 x11 -1 x26 +1 x652 >= -1 ;
+1 x12 -1 x653 >= 0 ;
+1 x25 -1 x653 >= 0 ;
-1 x12 -1 x25 +1 x653 >= -1 ;
+1 x12 -1 x654 >= 0 ;
+1 x26 -1 x654 >= 0 ;
-1 x12 -1 x26 +1 x654 >= -1 ;
+1 x13 -1 x655 >= 0 ;
+1 x27 -1 x655 >= 0 ;
-1 x13 -1 x27 +1 x655 >= -1 ;
+1 x13 -1 x656 >= 0 ;
+1 x28 -1 x656 >= 0 ;
-1 x13 -1 x28 +1 x656 >= -1 ;
+1 x14 -1 x657 >= 0 ;
+1 x27 -1 x657 >= 0 ;
-1 x14 -1 x27 +1 x657 >= -1 ;
+1 x14 -1 x658 >= 0 ;
+1 x28 -1 x658 >= 0 ;
-1 x14 -1 x28 +1 x658 >= -1 ;
+1 x15 -1 x659 >= 0 ;
+1 x29 -1 x659 >= 0 ;
-1 x15 -1 x29 +1 x659 >= -1 ;
+1 x15 -1 x660 >= 0 ;
+1 x30 -1 x660 >= 0 ;
-1 x15 -1 x30 +1 x660 >= -1 ;
+1 x16 -1 x661 >= 0 ;
+1 x29 -1 x661 >= 0 ;
-1 x16 -1 x29 +1 x661 >= -1 ;
+1 x16 -1 x662 >= 0 ;
+1 x30 -1 x662 >= 0 ;
-1 x16 -1 x30 +1 x662 >= -1 ;
+1 x17 -1 x663 >= 0 ;
+1 x31 -1 x663 >= 0 ;
-1 x17 -1 x31 +1 x663 >= -1 ;
+1 x17 -1 x664 >= 0 ;
+1 x32 -1 x664 >= 0 ;
-1 x17 -1 x32 +1 x664 >= -1 ;
+1 x18 -1 x665 >= 0 ;
+1 x31 -1 x665 >= 0 ;
-1 x18 -1 x31 +1 x665 >= -1 ;
+1 x18 -1 x666 >= 0 ;
+1 x32 -1 x666 >= 0 ;
-1 x18 -1 x32 +1 x666 >= -1 ;
+1 x19 -1 x667 >= 0 ;
+1 x33 -1 x667 >= 0 ;
-1 x19 -1 x33 +1 x667 >= -1 ;
+1 x19 -1 x668 >= 0 ;
+1 x34 -1 x668 >= 0 ;
-1 x19 -1 x34 +1 x668 >= -1 ;
+1 x20 -1 x669 >= 0 ;
+1 x33 -1 x669 >= 0 ;
-1 x20 -1 x33 +1 x669 >= -1 ;
+1 x20 -1 x670 >= 0 ;
+1 x34 -1 x670 >= 0 ;
-1 x20 -1 x34 +1 x670 >= -1 ;
+1 x21 -1 x671 >= 0 ;
+1 x35 -1 x671 >= 0 ;
-1 x21 -1 x35 +1 x671 >= -1 ;
+1 x21 -1 x672 >= 0 ;
+1 x36 -1 x672 >= 0 ;
-1 x21 -1 x36 +1 x672 >= -1 ;
+1 x22 -1 x673 >= 0 ;
+1 x35 -1 x673 >= 0 ;
-1 x22 -1 x35 +1 x673 >= -1 ;
+1 x22 -1 x674 >= 0 ;
+1 x36 -1 x674 >= 0 ;
-1 x22 -1 x36 +1 x674 >= -1 ;
+1 x23 -1 x675 >= 0 ;
+1 x37 -1 x675 >= 0 ;
-1 x23 -1 x37 +1 x675 >= -1 ;
+1 x23 -1 x676 >= 0 ;
+1 x38 -1 x676 >= 0 ;
-1 x23 -1 x38 +1 x676 >= -1 ;
+1 x24 -1 x677 >= 0 ;
+1 x37 -1 x677 >= 0 ;
-1 x24 -1 x37 +1 x677 >= -1 ;
+1 x24 -1 x678 >= 0 ;
+1 x38 -1 x678 >= 0 ;
-1 x24 -1 x38 +1 x678 >= -1 ;
+1 x25 -1 x679 >= 0 ;
+1 x39 -1 x679 >= 0 ;
-1 x25 -1 x39 +1 x679 >= -1 ;
+1 x25 -1 x680 >= 0 ;
+1 x40 -1 x680 >= 0 ;
-1 x25 -1 x40 +1 x680 >= -1 ;
+1 x26 -1 x681 >= 0 ;
+1 x39 -1 x681 >= 0 ;
-1 x26 -1 x39 +1 x681 >= -1 ;
+1 x26 -1 x682 >= 0 ;
+1 x40 -1 x682 >= 0 ;
-1 x26 -1 x40 +1 x682 >= -1 ;
+1 x27 -1 x683 >= 0 ;
+1 x41 -1 x683 >= 0 ;
-1 x27 -1 x41 +1 x683 >= -1 ;
+1 x27 -1 x684 >= 0 ;
+1 x42 -1 x684 >= 0 ;
-1 x27 -1 x42 +1 x684 >= -1 ;
+1 x28 -1 x685 >= 0 ;
+1 x41 -1 x685 >= 0 ;
-1 x28 -1 x41 +1 x685 >= -1 ;
+1 x28 -1 x686 >= 0 ;
+1 x42 -1 x686 >= 0 ;
-1 x28 -1 x42 +1 x686 >= -1 ;
+1 x29 -1 x687 >= 0 ;
+1 x1 -1 x687 >= 0 ;
-1 x29 -1 x1 +1 x687 >= -1 ;
+1 x29 -1 x688 >= 0 ;
+1 x2 -1 x688 >= 0 ;
-1 x29 -1 x2 +1 x688 >= -1 ;
+1 x30 -1 x689 >= 0 ;
+1 x1 -1 x689 >= 0 ;
-1 x30 -1 x1 +1 x689 >= -1 ;
+1 x30 -1 x690 >= 0 ;
+1 x2 -1 x690 >= 0 ;
-1 x30 -1 x2 +1 x690 >= -1 ;
+1 x31 -1 x691 >= 0 ;
+1 x3 -1 x691 >= 0 ;
-1 x31 -1 x3 +1 x691 >= -1 ;
+1 x31 -1 x692 >= 0 ;
+1 x4 -1 x692 >= 0 ;
-1 x31 -1 x4 +1 x692 >= -1 ;
+1 x32 -1 x693 >= 0 ;
+1 x3 -1 x693 >= 0 ;
-1 x32 -1 x3 +1 x693 >= -1 ;
+1 x32 -1 x694 >= 0 ;
+1 x4 -1 x694 >= 0 ;
-1 x32 -1 x4 +1 x694 >= -1 ;
+1 x33 -1 x695 >= 0 ;
+1 x5 -1 x695 >= 0 ;
-1 x33 -1 x5 +1 x695 >= -1 ;
+1 x33 -1 x696 >= 0 ;
+1 x6 -1 x696 >= 0 ;
-1 x33 -1 x6 +1 x696 >= -1 ;
+1 x34 -1 x697 >= 0 ;
+1 x5 -1 x697 >= 0 ;
-1 x34 -1 x5 +1 x697 >= -1 ;
+1 x34 -1 x698 >= 0 ;
+1 x6 -1 x698 >= 0 ;
-1 x34 -1 x6 +1 x698 >= -1 ;
+1 x35 -1 x699 >= 0 ;
+1 x7 -1 x699 >= 0 ;
-1 x35 -1 x7 +1 x699 >= -1 ;
+1 x35 -1 x700 >= 0 ;
+1 x8 -1 x700 >= 0 ;
-1 x35 -1 x8 +1 x700 >= -1 ;
+1 x36 -1 x701 >= 0 ;
+1 x7 -1 x701 >= 0 ;
-1 x36 -1 x7 +1 x701 >= -1 ;
+1 x36 -1 x702 >= 0 ;
+1 x8 -1 x702 >= 0 ;
-1 x36 -1 x8 +1 x702 >= -1 ;
+1 x37 -1 x703 >= 0 ;
+1 x9 -1 x703 >= 0 ;
-1 x37 -1 x9 +1 x703 >= -1 ;
+1 x37 -1 x704 >= 0 ;
+1 x10 -1 x704 >= 0 ;
-1 x37 -1 x10 +1 x704 >= -1 ;
+1 x38 -1 x705 >= 0 ;
+1 x9 -1 x705 >= 0 ;
-1 x38 -1 x9 +1 x705 >= -1 ;
+1 x38 -1 x706 >= 0 ;
+1 x10 -1 x706 >= 0 ;
-1 x38 -1 x10 +1 x706 >= -1 ;
+1 x39 -1 x707 >= 0 ;
+1 x11 -1 x707 >= 0 ;
-1 x39 -1 x11 +1 x707 >= -1 ;
+1 x39 -1 x708 >= 0 ;
+1 x12 -1 x708 >= 0 ;
-1 x39 -1 x12 +1 x708 >= -1 ;
+1 x40 -1 x709 >= 0 ;
+1 x11 -1 x709 >= 0 ;
-1 x40 -1 x11 +1 x709 >= -1 ;
+1 x40 -1 x710 >= 0 ;
+1 x12 -1 x710 >= 0 ;
-1 x40 -1 x12 +1 x710 >= -1 ;
+1 x41 -1 x711 >= 0 ;
+1 x13 -1 x711 >= 0 ;
-1 x41 -1 x13 +1 x711 >= -1 ;
+1 x41 -1 x712 >= 0 ;
+1 x14 -1 x712 >= 0 ;
-1 x41 -1 x14 +1 x712 >= -1 ;
+1 x42 -1 x713 >= 0 ;
+1 x13 -1 x713 >= 0 ;
-1 x42 -1 x13 +1 x713 >= -1 ;
+1 x42 -1 x714 >= 0 ;
+1 x14 -1 x714 >= 0 ;
-1 x42 -1 x14 +1 x714 >= -1 ;
+1 x1 -1 x715 >= 0 ;
+1 x17 -1 x715 >= 0 ;
-1 x1 -1 x17 +1 x715 >= -1 ;
+1 x1 -1 x716 >= 0 ;
+1 x18 -1 x716 >= 0 ;
-1 x1 -1 x18 +1 x716 >= -1 ;
+1 x2 -1 x717 >= 0 ;
+1 x17 -1 x717 >= 0 ;
-1 x2 -1 x17 +1 x717 >= -1 ;
+1 x2 -1 x718 >= 0 ;
+1 x18 -1 x718 >= 0 ;
-1 x2 -1 x18 +1 x718 >= -1 ;
+1 x3 -1 x719 >= 0 ;
+1 x19 -1 x719 >= 0 ;
-1 x3 -1 x19 +1 x719 >= -1 ;
+1 x3 -1 x720 >= 0 ;
+1 x20 -1 x720 >= 0 ;
-1 x3 -1 x20 +1 x720 >= -1 ;
+1 x4 -1 x721 >= 0 ;
+1 x19 -1 x721 >= 0 ;
-1 x4 -1 x19 +1 x721 >= -1 ;
+1 x4 -1 x722 >= 0 ;
+1 x20 -1 x722 >= 0 ;
-1 x4 -1 x20 +1 x722 >= -1 ;
+1 x5 -1 x723 >= 0 ;
+1 x21 -1 x723 >= 0 ;
-1 x5 -1 x21 +1 x723 >= -1 ;
+1 x5 -1 x724 >= 0 ;
+1 x22 -1 x724 >= 0 ;
-1 x5 -1 x22 +1 x724 >= -1 ;
+1 x6 -1 x725 >= 0 ;
+1 x21 -1 x725 >= 0 ;
-1 x6 -1 x21 +1 x725 >= -1 ;
+1 x6 -1 x726 >= 0 ;
+1 x22 -1 x726 >= 0 ;
-1 x6 -1 x22 +1 x726 >= -1 ;
+1 x7 -1 x727 >= 0 ;
+1 x23 -1 x727 >= 0 ;
-1 x7 -1 x23 +1 x727 >= -1 ;
+1 x7 -1 x728 >= 0 ;
+1 x24 -1 x728 >= 0 ;
-1 x7 -1 x24 +1 x728 >= -1 ;
+1 x8 -1 x729 >= 0 ;
+1 x23 -1 x729 >= 0 ;
-1 x8 -1 x23 +1 x729 >= -1 ;
+1 x8 -1 x730 >= 0 ;
+1 x24 -1 x730 >= 0 ;
-1 x8 -1 x24 +1 x730 >= -1 ;
+1 x9 -1 x731 >= 0 ;
+1 x25 -1 x731 >= 0 ;
-1 x9 -1 x25 +1 x731 >= -1 ;
+1 x9 -1 x732 >= 0 ;
+1 x26 -1 x732 >= 0 ;
-1 x9 -1 x26 +1 x732 >= -1 ;
+1 x10 -1 x733 >= 0 ;
+1 x25 -1 x733 >= 0 ;
-1 x10 -1 x25 +1 x733 >= -1 ;
+1 x10 -1 x734 >= 0 ;
+1 x26 -1 x734 >= 0 ;
-1 x10 -1 x26 +1 x734 >= -1 ;
+1 x11 -1 x735 >= 0 ;
+1 x27 -1 x735 >= 0 ;
-1 x11 -1 x27 +1 x735 >= -1 ;
+1 x11 -1 x736 >= 0 ;
+1 x28 -1 x736 >= 0 ;
-1 x11 -1 x28 +1 x736 >= -1 ;
+1 x12 -1 x737 >= 0 ;
+1 x27 -1 x737 >= 0 ;
-1 x12 -1 x27 +1 x737 >= -1 ;
+1 x12 -1 x738 >= 0 ;
+1 x28 -1 x738 >= 0 ;
-1 x12 -1 x28 +1 x738 >= -1 ;
+1 x13 -1 x739 >= 0 ;
+1 x29 -1 x739 >= 0 ;
-1 x13 -1 x29 +1 x739 >= -1 ;
+1 x13 -1 x740 >= 0 ;
+1 x30 -1 x740 >= 0 ;
-1 x13 -1 x30 +1 x740 >= -1 ;
+1 x14 -1 x741 >= 0 ;
+1 x29 -1 x741 >= 0 ;
-1 x14 -1 x29 +1 x741 >= -1 ;
+1 x14 -1 x742 >= 0 ;
+1 x30 -1 x742 >= 0 ;
-1 x14 -1 x30 +1 x742 >= -1 ;
+1 x15 -1 x743 >= 0 ;
+1 x31 -1 x743 >= 0 ;
-1 x15 -1 x31 +1 x743 >= -1 ;
+1 x15 -1 x744 >= 0 ;
+1 x32 -1 x744 >= 0 ;
-1 x15 -1 x32 +1 x744 >= -1 ;
+1 x16 -1 x745 >= 0 ;
+1 x31 -1 x745 >= 0 ;
-1 x16 -1 x31 +1 x745 >= -1 ;
+1 x16 -1 x746 >= 0 ;
+1 x32 -1 x746 >= 0 ;
-1 x16 -1 x32 +1 x746 >= -1 ;
+1 x17 -1 x747 >= 0 ;
+1 x33 -1 x747 >= 0 ;
-1 x17 -1 x33 +1 x747 >= -1 ;
+1 x17 -1 x748 >= 0 ;
+1 x34 -1 x748 >= 0 ;
-1 x17 -1 x34 +1 x748 >= -1 ;
+1 x18 -1 x749 >= 0 ;
+1 x33 -1 x749 >= 0 ;
-1 x18 -1 x33 +1 x749 >= -1 ;
+1 x18 -1 x750 >= 0 ;
+1 x34 -1 x750 >= 0 ;
-1 x18 -1 x34 +1 x750 >= -1 ;
+1 x19 -1 x751 >= 0 ;
+1 x35 -1 x751 >= 0 ;
-1 x19 -1 x35 +1 x751 >= -1 ;
+1 x19 -1 x752 >= 0 ;
+1 x36 -1 x752 >= 0 ;
-1 x19 -1 x36 +1 x752 >= -1 ;
+1 x20 -1 x753 >= 0 ;
+1 x35 -1 x753 >= 0 ;
-1 x20 -1 x35 +1 x753 >= -1 ;
+1 x20 -1 x754 >= 0 ;
+1 x36 -1 x754 >= 0 ;
-1 x20 -1 x36 +1 x754 >= -1 ;
+1 x21 -1 x755 >= 0 ;
+1 x37 -1 x755 >= 0 ;
-1 x21 -1 x37 +1 x755 >= -1 ;
+1 x21 -1 x756 >= 0 ;
+1 x38 -1 x756 >= 0 ;
-1 x21 -1 x38 +1 x756 >= -1 ;
+1 x22 -1 x757 >= 0 ;
+1 x37 -1 x757 >= 0 ;
-1 x22 -1 x37 +1 x757 >= -1 ;
+1 x22 -1 x758 >= 0 ;
+1 x38 -1 x758 >= 0 ;
-1 x22 -1 x38 +1 x758 >= -1 ;
+1 x23 -1 x759 >= 0 ;
+1 x39 -1 x759 >= 0 ;
-1 x23 -1 x39 +1 x759 >= -1 ;
+1 x23 -1 x760 >= 0 ;
+1 x40 -1 x760 >= 0 ;
-1 x23 -1 x40 +1 x760 >= -1 ;
+1 x24 -1 x761 >= 0 ;
+1 x39 -1 x761 >= 0 ;
-1 x24 -1 x39 +1 x761 >= -1 ;
+1 x24 -1 x762 >= 0 ;
+1 x40 -1 x762 >= 0 ;
-1 x24 -1 x40 +1 x762 >= -1 ;
+1 x25 -1 x763 >= 0 ;
+1 x41 -1 x763 >= 0 ;
-1 x25 -1 x41 +1 x763 >= -1 ;
+1 x25 -1 x764 >= 0 ;
+1 x42 -1 x764 >= 0 ;
-1 x25 -1 x42 +1 x764 >= -1 ;
+1 x26 -1 x765 >= 0 ;
+1 x41 -1 x765 >= 0 ;
-1 x26 -1 x41 +1 x765 >= -1 ;
+1 x26 -1 x766 >= 0 ;
+1 x42 -1 x766 >= 0 ;
-1 x26 -1 x42 +1 x766 >= -1 ;
+1 x27 -1 x767 >= 0 ;
+1 x1 -1 x767 >= 0 ;
-1 x27 -1 x1 +1 x767 >= -1 ;
+1 x27 -1 x768 >= 0 ;
+1 x2 -1 x768 >= 0 ;
-1 x27 -1 x2 +1 x768 >= -1 ;
+1 x28 -1 x769 >= 0 ;
+1 x1 -1 x769 >= 0 ;
-1 x28 -1 x1 +1 x769 >= -1 ;
+1 x28 -1 x770 >= 0 ;
+1 x2 -1 x770 >= 0 ;
-1 x28 -1 x2 +1 x770 >= -1 ;
+1 x29 -1 x771 >= 0 ;
+1 x3 -1 x771 >= 0 ;
-1 x29 -1 x3 +1 x771 >= -1 ;
+1 x29 -1 x772 >= 0 ;
+1 x4 -1 x772 >= 0 ;
-1 x29 -1 x4 +1 x772 >= -1 ;
+1 x30 -1 x773 >= 0 ;
+1 x3 -1 x773 >= 0 ;
-1 x30 -1 x3 +1 x773 >= -1 ;
+1 x30 -1 x774 >= 0 ;
+1 x4 -1 x774 >= 0 ;
-1 x30 -1 x4 +1 x774 >= -1 ;
+1 x31 -1 x775 >= 0 ;
+1 x5 -1 x775 >= 0 ;
-1 x31 -1 x5 +1 x775 >= -1 ;
+1 x31 -1 x776 >= 0 ;
+1 x6 -1 x776 >= 0 ;
-1 x31 -1 x6 +1 x776 >= -1 ;
+1 x32 -1 x777 >= 0 ;
+1 x5 -1 x777 >= 0 ;
-1 x32 -1 x5 +1 x777 >= -1 ;
+1 x32 -1 x778 >= 0 ;
+1 x6 -1 x778 >= 0 ;
-1 x32 -1 x6 +1 x778 >= -1 ;
+1 x33 -1 x779 >= 0 ;
+1 x7 -1 x779 >= 0 ;
-1 x33 -1 x7 +1 x779 >= -1 ;
+1 x33 -1 x780 >= 0 ;
+1 x8 -1 x780 >= 0 ;
-1 x33 -1 x8 +1 x780 >= -1 ;
+1 x34 -1 x781 >= 0 ;
+1 x7 -1 x781 >= 0 ;
-1 x34 -1 x7 +1 x781 >= -1 ;
+1 x34 -1 x782 >= 0 ;
+1 x8 -1 x782 >= 0 ;
-1 x34 -1 x8 +1 x782 >= -1 ;
+1 x35 -1 x783 >= 0 ;
+1 x9 -1 x783 >= 0 ;
-1 x35 -1 x9 +1 x783 >= -1 ;
+1 x35 -1 x784 >= 0 ;
+1 x10 -1 x784 >= 0 ;
-1 x35 -1 x10 +1 x784 >= -1 ;
+1 x36 -1 x785 >= 0 ;
+1 x9 -1 x785 >= 0 ;
-1 x36 -1 x9 +1 x785 >= -1 ;
+1 x36 -1 x786 >= 0 ;
+1 x10 -1 x786 >= 0 ;
-1 x36 -1 x10 +1 x786 >= -1 ;
+1 x37 -1 x787 >= 0 ;
+1 x11 -1 x787 >= 0 ;
-1 x37 -1 x11 +1 x787 >= -1 ;
+1 x37 -1 x788 >= 0 ;
+1 x12 -1 x788 >= 0 ;
-1 x37 -1 x12 +1 x788 >= -1 ;
+1 x38 -1 x789 >= 0 ;
+1 x11 -1 x789 >= 0 ;
-1 x38 -1 x11 +1 x789 >= -1 ;
+1 x38 -1 x790 >= 0 ;
+1 x12 -1 x790 >= 0 ;
-1 x38 -1 x12 +1 x790 >= -1 ;
+1 x39 -1 x791 >= 0 ;
+1 x13 -1 x791 >= 0 ;
-1 x39 -1 x13 +1 x791 >= -1 ;
+1 x39 -1 x792 >= 0 ;
+1 x14 -1 x792 >= 0 ;
-1 x39 -1 x14 +1 x792 >= -1 ;
+1 x40 -1 x793 >= 0 ;
+1 x13 -1 x793 >= 0 ;
-1 x40 -1 x13 +1 x793 >= -1 ;
+1 x40 -1 x794 >= 0 ;
+1 x14 -1 x794 >= 0 ;
-1 x40 -1 x14 +1 x794 >= -1 ;
+1 x41 -1 x795 >= 0 ;
+1 x15 -1 x795 >= 0 ;
-1 x41 -1 x15 +1 x795 >= -1 ;
+1 x41 -1 x796 >= 0 ;
+1 x16 -1 x796 >= 0 ;
-1 x41 -1 x16 +1 x796 >= -1 ;
+1 x42 -1 x797 >= 0 ;
+1 x15 -1 x797 >= 0 ;
-1 x42 -1 x15 +1 x797 >= -1 ;
+1 x42 -1 x798 >= 0 ;
+1 x16 -1 x798 >= 0 ;
-1 x42 -1 x16 +1 x798 >= -1 ;
+1 x1 -1 x799 >= 0 ;
+1 x19 -1 x799 >= 0 ;
-1 x1 -1 x19 +1 x799 >= -1 ;
+1 x1 -1 x800 >= 0 ;
+1 x20 -1 x800 >= 0 ;
-1 x1 -1 x20 +1 x800 >= -1 ;
+1 x2 -1 x801 >= 0 ;
+1 x19 -1 x801 >= 0 ;
-1 x2 -1 x19 +1 x801 >= -1 ;
+1 x2 -1 x802 >= 0 ;
+1 x20 -1 x802 >= 0 ;
-1 x2 -1 x20 +1 x802 >= -1 ;
+1 x3 -1 x803 >= 0 ;
+1 x21 -1 x803 >= 0 ;
-1 x3 -1 x21 +1 x803 >= -1 ;
+1 x3 -1 x804 >= 0 ;
+1 x22 -1 x804 >= 0 ;
-1 x3 -1 x22 +1 x804 >= -1 ;
+1 x4 -1 x805 >= 0 ;
+1 x21 -1 x805 >= 0 ;
-1 x4 -1 x21 +1 x805 >= -1 ;
+1 x4 -1 x806 >= 0 ;
+1 x22 -1 x806 >= 0 ;
-1 x4 -1 x22 +1 x806 >= -1 ;
+1 x5 -1 x807 >= 0 ;
+1 x23 -1 x807 >= 0 ;
-1 x5 -1 x23 +1 x807 >= -1 ;
+1 x5 -1 x808 >= 0 ;
+1 x24 -1 x808 >= 0 ;
-1 x5 -1 x24 +1 x808 >= -1 ;
+1 x6 -1 x809 >= 0 ;
+1 x23 -1 x809 >= 0 ;
-1 x6 -1 x23 +1 x809 >= -1 ;
+1 x6 -1 x810 >= 0 ;
+1 x24 -1 x810 >= 0 ;
-1 x6 -1 x24 +1 x810 >= -1 ;
+1 x7 -1 x811 >= 0 ;
+1 x25 -1 x811 >= 0 ;
-1 x7 -1 x25 +1 x811 >= -1 ;
+1 x7 -1 x812 >= 0 ;
+1 x26 -1 x812 >= 0 ;
-1 x7 -1 x26 +1 x812 >= -1 ;
+1 x8 -1 x813 >= 0 ;
+1 x25 -1 x813 >= 0 ;
-1 x8 -1 x25 +1 x813 >= -1 ;
+1 x8 -1 x814 >= 0 ;
+1 x26 -1 x814 >= 0 ;
-1 x8 -1 x26 +1 x814 >= -1 ;
+1 x9 -1 x815 >= 0 ;
+1 x27 -1 x815 >= 0 ;
-1 x9 -1 x27 +1 x815 >= -1 ;
+1 x9 -1 x816 >= 0 ;
+1 x28 -1 x816 >= 0 ;
-1 x9 -1 x28 +1 x816 >= -1 ;
+1 x10 -1 x817 >= 0 ;
+1 x27 -1 x817 >= 0 ;
-1 x10 -1 x27 +1 x817 >= -1 ;
+1 x10 -1 x818 >= 0 ;
+1 x28 -1 x818 >= 0 ;
-1 x10 -1 x28 +1 x818 >= -1 ;
+1 x11 -1 x819 >= 0 ;
+1 x29 -1 x819 >= 0 ;
-1 x11 -1 x29 +1 x819 >= -1 ;
+1 x11 -1 x820 >= 0 ;
+1 x30 -1 x820 >= 0 ;
-1 x11 -1 x30 +1 x820 >= -1 ;
+1 x12 -1 x821 >= 0 ;
+1 x29 -1 x821 >= 0 ;
-1 x12 -1 x29 +1 x821 >= -1 ;
+1 x12 -1 x822 >= 0 ;
+1 x30 -1 x822 >= 0 ;
-1 x12 -1 x30 +1 x822 >= -1 ;
+1 x13 -1 x823 >= 0 ;
+1 x31 -1 x823 >= 0 ;
-1 x13 -1 x31 +1 x823 >= -1 ;
+1 x13 -1 x824 >= 0 ;
+1 x32 -1 x824 >= 0 ;
-1 x13 -1 x32 +1 x824 >= -1 ;
+1 x14 -1 x825 >= 0 ;
+1 x31 -1 x825 >= 0 ;
-1 x14 -1 x31 +1 x825 >= -1 ;
+1 x14 -1 x826 >= 0 ;
+1 x32 -1 x826 >= 0 ;
-1 x14 -1 x32 +1 x826 >= -1 ;
+1 x15 -1 x827 >= 0 ;
+1 x33 -1 x827 >= 0 ;
-1 x15 -1 x33 +1 x827 >= -1 ;
+1 x15 -1 x828 >= 0 ;
+1 x34 -1 x828 >= 0 ;
-1 x15 -1 x34 +1 x828 >= -1 ;
+1 x16 -1 x829 >= 0 ;
+1 x33 -1 x829 >= 0 ;
-1 x16 -1 x33 +1 x829 >= -1 ;
+1 x16 -1 x830 >= 0 ;
+1 x34 -1 x830 >= 0 ;
-1 x16 -1 x34 +1 x830 >= -1 ;
+1 x17 -1 x831 >= 0 ;
+1 x35 -1 x831 >= 0 ;
-1 x17 -1 x35 +1 x831 >= -1 ;
+1 x17 -1 x832 >= 0 ;
+1 x36 -1 x832 >= 0 ;
-1 x17 -1 x36 +1 x832 >= -1 ;
+1 x18 -1 x833 >= 0 ;
+1 x35 -1 x833 >= 0 ;
-1 x18 -1 x35 +1 x833 >= -1 ;
+1 x18 -1 x834 >= 0 ;
+1 x36 -1 x834 >= 0 ;
-1 x18 -1 x36 +1 x834 >= -1 ;
+1 x19 -1 x835 >= 0 ;
+1 x37 -1 x835 >= 0 ;
-1 x19 -1 x37 +1 x835 >= -1 ;
+1 x19 -1 x836 >= 0 ;
+1 x38 -1 x836 >= 0 ;
-1 x19 -1 x38 +1 x836 >= -1 ;
+1 x20 -1 x837 >= 0 ;
+1 x37 -1 x837 >= 0 ;
-1 x20 -1 x37 +1 x837 >= -1 ;
+1 x20 -1 x838 >= 0 ;
+1 x38 -1 x838 >= 0 ;
-1 x20 -1 x38 +1 x838 >= -1 ;
+1 x21 -1 x839 >= 0 ;
+1 x39 -1 x839 >= 0 ;
-1 x21 -1 x39 +1 x839 >= -1 ;
+1 x21 -1 x840 >= 0 ;
+1 x40 -1 x840 >= 0 ;
-1 x21 -1 x40 +1 x840 >= -1 ;
+1 x22 -1 x841 >= 0 ;
+1 x39 -1 x841 >= 0 ;
-1 x22 -1 x39 +1 x841 >= -1 ;
+1 x22 -1 x842 >= 0 ;
+1 x40 -1 x842 >= 0 ;
-1 x22 -1 x40 +1 x842 >= -1 ;
+1 x23 -1 x843 >= 0 ;
+1 x41 -1 x843 >= 0 ;
-1 x23 -1 x41 +1 x843 >= -1 ;
+1 x23 -1 x844 >= 0 ;
+1 x42 -1 x844 >= 0 ;
-1 x23 -1 x42 +1 x844 >= -1 ;
+1 x24 -1 x845 >= 0 ;
+1 x41 -1 x845 >= 0 ;
-1 x24 -1 x41 +1 x845 >= -1 ;
+1 x24 -1 x846 >= 0 ;
+1 x42 -1 x846 >= 0 ;
-1 x24 -1 x42 +1 x846 >= -1 ;
+1 x25 -1 x847 >= 0 ;
+1 x1 -1 x847 >= 0 ;
-1 x25 -1 x1 +1 x847 >= -1 ;
+1 x25 -1 x848 >= 0 ;
+1 x2 -1 x848 >= 0 ;
-1 x25 -1 x2 +1 x848 >= -1 ;
+1 x26 -1 x849 >= 0 ;
+1 x1 -1 x849 >= 0 ;
-1 x26 -1 x1 +1 x849 >= -1 ;
+1 x26 -1 x850 >= 0 ;
+1 x2 -1 x850 >= 0 ;
-1 x26 -1 x2 +1 x850 >= -1 ;
+1 x27 -1 x851 >= 0 ;
+1 x3 -1 x851 >= 0 ;
-1 x27 -1 x3 +1 x851 >= -1 ;
+1 x27 -1 x852 >= 0 ;
+1 x4 -1 x852 >= 0 ;
-1 x27 -1 x4 +1 x852 >= -1 ;
+1 x28 -1 x853 >= 0 ;
+1 x3 -1 x853 >= 0 ;
-1 x28 -1 x3 +1 x853 >= -1 ;
+1 x28 -1 x854 >= 0 ;
+1 x4 -1 x854 >= 0 ;
-1 x28 -1 x4 +1 x854 >= -1 ;
+1 x29 -1 x855 >= 0 ;
+1 x5 -1 x855 >= 0 ;
-1 x29 -1 x5 +1 x855 >= -1 ;
+1 x29 -1 x856 >= 0 ;
+1 x6 -1 x856 >= 0 ;
-1 x29 -1 x6 +1 x856 >= -1 ;
+1 x30 -1 x857 >= 0 ;
+1 x5 -1 x857 >= 0 ;
-1 x30 -1 x5 +1 x857 >= -1 ;
+1 x30 -1 x858 >= 0 ;
+1 x6 -1 x858 >= 0 ;
-1 x30 -1 x6 +1 x858 >= -1 ;
+1 x31 -1 x859 >= 0 ;
+1 x7 -1 x859 >= 0 ;
-1 x31 -1 x7 +1 x859 >= -1 ;
+1 x31 -1 x860 >= 0 ;
+1 x8 -1 x860 >= 0 ;
-1 x31 -1 x8 +1 x860 >= -1 ;
+1 x32 -1 x861 >= 0 ;
+1 x7 -1 x861 >= 0 ;
-1 x32 -1 x7 +1 x861 >= -1 ;
+1 x32 -1 x862 >= 0 ;
+1 x8 -1 x862 >= 0 ;
-1 x32 -1 x8 +1 x862 >= -1 ;
+1 x33 -1 x863 >= 0 ;
+1 x9 -1 x863 >= 0 ;
-1 x33 -1 x9 +1 x863 >= -1 ;
+1 x33 -1 x864 >= 0 ;
+1 x10 -1 x864 >= 0 ;
-1 x33 -1 x10 +1 x864 >= -1 ;
+1 x34 -1 x865 >= 0 ;
+1 x9 -1 x865 >= 0 ;
-1 x34 -1 x9 +1 x865 >= -1 ;
+1 x34 -1 x866 >= 0 ;
+1 x10 -1 x866 >= 0 ;
-1 x34 -1 x10 +1 x866 >= -1 ;
+1 x35 -1 x867 >= 0 ;
+1 x11 -1 x867 >= 0 ;
-1 x35 -1 x11 +1 x867 >= -1 ;
+1 x35 -1 x868 >= 0 ;
+1 x12 -1 x868 >= 0 ;
-1 x35 -1 x12 +1 x868 >= -1 ;
+1 x36 -1 x869 >= 0 ;
+1 x11 -1 x869 >= 0 ;
-1 x36 -1 x11 +1 x869 >= -1 ;
+1 x36 -1 x870 >= 0 ;
+1 x12 -1 x870 >= 0 ;
-1 x36 -1 x12 +1 x870 >= -1 ;
+1 x37 -1 x871 >= 0 ;
+1 x13 -1 x871 >= 0 ;
-1 x37 -1 x13 +1 x871 >= -1 ;
+1 x37 -1 x872 >= 0 ;
+1 x14 -1 x872 >= 0 ;
-1 x37 -1 x14 +1 x872 >= -1 ;
+1 x38 -1 x873 >= 0 ;
+1 x13 -1 x873 >= 0 ;
-1 x38 -1 x13 +1 x873 >= -1 ;
+1 x38 -1 x874 >= 0 ;
+1 x14 -1 x874 >= 0 ;
-1 x38 -1 x14 +1 x874 >= -1 ;
+1 x39 -1 x875 >= 0 ;
+1 x15 -1 x875 >= 0 ;
-1 x39 -1 x15 +1 x875 >= -1 ;
+1 x39 -1 x876 >= 0 ;
+1 x16 -1 x876 >= 0 ;
-1 x39 -1 x16 +1 x876 >= -1 ;
+1 x40 -1 x877 >= 0 ;
+1 x15 -1 x877 >= 0 ;
-1 x40 -1 x15 +1 x877 >= -1 ;
+1 x40 -1 x878 >= 0 ;
+1 x16 -1 x878 >= 0 ;
-1 x40 -1 x16 +1 x878 >= -1 ;
+1 x41 -1 x879 >= 0 ;
+1 x17 -1 x879 >= 0 ;
-1 x41 -1 x17 +1 x879 >= -1 ;
+1 x41 -1 x880 >= 0 ;
+1 x18 -1 x880 >= 0 ;
-1 x41 -1 x18 +1 x880 >= -1 ;
+1 x42 -1 x881 >= 0 ;
+1 x17 -1 x881 >= 0 ;
-1 x42 -1 x17 +1 x881 >= -1 ;
+1 x42 -1 x882 >= 0 ;
+1 x18 -1 x882 >= 0 ;
-1 x42 -1 x18 +1 x882 >= -1 ;
+1 x1 -1 x883 >= 0 ;
+1 x21 -1 x883 >= 0 ;
-1 x1 -1 x21 +1 x883 >= -1 ;
+1 x1 -1 x884 >= 0 ;
+1 x22 -1 x884 >= 0 ;
-1 x1 -1 x22 +1 x884 >= -1 ;
+1 x2 -1 x885 >= 0 ;
+1 x21 -1 x885 >= 0 ;
-1 x2 -1 x21 +1 x885 >= -1 ;
+1 x2 -1 x886 >= 0 ;
+1 x22 -1 x886 >= 0 ;
-1 x2 -1 x22 +1 x886 >= -1 ;
+1 x3 -1 x887 >= 0 ;
+1 x23 -1 x887 >= 0 ;
-1 x3 -1 x23 +1 x887 >= -1 ;
+1 x3 -1 x888 >= 0 ;
+1 x24 -1 x888 >= 0 ;
-1 x3 -1 x24 +1 x888 >= -1 ;
+1 x4 -1 x889 >= 0 ;
+1 x23 -1 x889 >= 0 ;
-1 x4 -1 x23 +1 x889 >= -1 ;
+1 x4 -1 x890 >= 0 ;
+1 x24 -1 x890 >= 0 ;
-1 x4 -1 x24 +1 x890 >= -1 ;
+1 x5 -1 x891 >= 0 ;
+1 x25 -1 x891 >= 0 ;
-1 x5 -1 x25 +1 x891 >= -1 ;
+1 x5 -1 x892 >= 0 ;
+1 x26 -1 x892 >= 0 ;
-1 x5 -1 x26 +1 x892 >= -1 ;
+1 x6 -1 x893 >= 0 ;
+1 x25 -1 x893 >= 0 ;
-1 x6 -1 x25 +1 x893 >= -1 ;
+1 x6 -1 x894 >= 0 ;
+1 x26 -1 x894 >= 0 ;
-1 x6 -1 x26 +1 x894 >= -1 ;
+1 x7 -1 x895 >= 0 ;
+1 x27 -1 x895 >= 0 ;
-1 x7 -1 x27 +1 x895 >= -1 ;
+1 x7 -1 x896 >= 0 ;
+1 x28 -1 x896 >= 0 ;
-1 x7 -1 x28 +1 x896 >= -1 ;
+1 x8 -1 x897 >= 0 ;
+1 x27 -1 x897 >= 0 ;
-1 x8 -1 x27 +1 x897 >= -1 ;
+1 x8 -1 x898 >= 0 ;
+1 x28 -1 x898 >= 0 ;
-1 x8 -1 x28 +1 x898 >= -1 ;
+1 x9 -1 x899 >= 0 ;
+1 x29 -1 x899 >= 0 ;
-1 x9 -1 x29 +1 x899 >= -1 ;
+1 x9 -1 x900 >= 0 ;
+1 x30 -1 x900 >= 0 ;
-1 x9 -1 x30 +1 x900 >= -1 ;
+1 x10 -1 x901 >= 0 ;
+1 x29 -1 x901 >= 0 ;
-1 x10 -1 x29 +1 x901 >= -1 ;
+1 x10 -1 x902 >= 0 ;
+1 x30 -1 x902 >= 0 ;
-1 x10 -1 x30 +1 x902 >= -1 ;
+1 x11 -1 x903 >= 0 ;
+1 x31 -1 x903 >= 0 ;
-1 x11 -1 x31 +1 x903 >= -1 ;
+1 x11 -1 x904 >= 0 ;
+1 x32 -1 x904 >= 0 ;
-1 x11 -1 x32 +1 x904 >= -1 ;
+1 x12 -1 x905 >= 0 ;
+1 x31 -1 x905 >= 0 ;
-1 x12 -1 x31 +1 x905 >= -1 ;
+1 x12 -1 x906 >= 0 ;
+1 x32 -1 x906 >= 0 ;
-1 x12 -1 x32 +1 x906 >= -1 ;
+1 x13 -1 x907 >= 0 ;
+1 x33 -1 x907 >= 0 ;
-1 x13 -1 x33 +1 x907 >= -1 ;
+1 x13 -1 x908 >= 0 ;
+1 x34 -1 x908 >= 0 ;
-1 x13 -1 x34 +1 x908 >= -1 ;
+1 x14 -1 x909 >= 0 ;
+1 x33 -1 x909 >= 0 ;
-1 x14 -1 x33 +1 x909 >= -1 ;
+1 x14 -1 x910 >= 0 ;
+1 x34 -1 x910 >= 0 ;
-1 x14 -1 x34 +1 x910 >= -1 ;
+1 x15 -1 x911 >= 0 ;
+1 x35 -1 x911 >= 0 ;
-1 x15 -1 x35 +1 x911 >= -1 ;
+1 x15 -1 x912 >= 0 ;
+1 x36 -1 x912 >= 0 ;
-1 x15 -1 x36 +1 x912 >= -1 ;
+1 x16 -1 x913 >= 0 ;
+1 x35 -1 x913 >= 0 ;
-1 x16 -1 x35 +1 x913 >= -1 ;
+1 x16 -1 x914 >= 0 ;
+1 x36 -1 x914 >= 0 ;
-1 x16 -1 x36 +1 x914 >= -1 ;
+1 x17 -1 x915 >= 0 ;
+1 x37 -1 x915 >= 0 ;
-1 x17 -1 x37 +1 x915 >= -1 ;
+1 x17 -1 x916 >= 0 ;
+1 x38 -1 x916 >= 0 ;
-1 x17 -1 x38 +1 x916 >= -1 ;
+1 x18 -1 x917 >= 0 ;
+1 x37 -1 x917 >= 0 ;
-1 x18 -1 x37 +1 x917 >= -1 ;
+1 x18 -1 x918 >= 0 ;
+1 x38 -1 x918 >= 0 ;
-1 x18 -1 x38 +1 x918 >= -1 ;
+1 x19 -1 x919 >= 0 ;
+1 x39 -1 x919 >= 0 ;
-1 x19 -1 x39 +1 x919 >= -1 ;
+1 x19 -1 x920 >= 0 ;
+1 x40 -1 x920 >= 0 ;
-1 x19 -1 x40 +1 x920 >= -1 ;
+1 x20 -1 x921 >= 0 ;
+1 x39 -1 x921 >= 0 ;
-1 x20 -1 x39 +1 x921 >= -1 ;
+1 x20 -1 x922 >= 0 ;
+1 x40 -1 x922 >= 0 ;
-1 x20 -1 x40 +1 x922 >= -1 ;
+1 x21 -1 x923 >= 0 ;
+1 x41 -1 x923 >= 0 ;
-1 x21 -1 x41 +1 x923 >= -1 ;
+1 x21 -1 x924 >= 0 ;
+1 x42 -1 x924 >= 0 ;
-1 x21 -1 x42 +1 x924 >= -1 ;
+1 x22 -1 x925 >= 0 ;
+1 x41 -1 x925 >= 0 ;
-1 x22 -1 x41 +1 x925 >= -1 ;
+1 x22 -1 x926 >= 0 ;
+1 x42 -1 x926 >= 0 ;
-1 x22 -1 x42 +1 x926 >= -1 ;
+1 x23 -1 x927 >= 0 ;
+1 x1 -1 x927 >= 0 ;
-1 x23 -1 x1 +1 x927 >= -1 ;
+1 x23 -1 x928 >= 0 ;
+1 x2 -1 x928 >= 0 ;
-1 x23 -1 x2 +1 x928 >= -1 ;
+1 x24 -1 x929 >= 0 ;
+1 x1 -1 x929 >= 0 ;
-1 x24 -1 x1 +1 x929 >= -1 ;
+1 x24 -1 x930 >= 0 ;
+1 x2 -1 x930 >= 0 ;
-1 x24 -1 x2 +1 x930 >= -1 ;
+1 x25 -1 x931 >= 0 ;
+1 x3 -1 x931 >= 0 ;
-1 x25 -1 x3 +1 x931 >= -1 ;
+1 x25 -1 x932 >= 0 ;
+1 x4 -1 x932 >= 0 ;
-1 x25 -1 x4 +1 x932 >= -1 ;
+1 x26 -1 x933 >= 0 ;
+1 x3 -1 x933 >= 0 ;
-1 x26 -1 x3 +1 x933 >= -1 ;
+1 x26 -1 x934 >= 0 ;
+1 x4 -1 x934 >= 0 ;
-1 x26 -1 x4 +1 x934 >= -1 ;
+1 x27 -1 x935 >= 0 ;
+1 x5 -1 x935 >= 0 ;
-1 x27 -1 x5 +1 x935 >= -1 ;
+1 x27 -1 x936 >= 0 ;
+1 x6 -1 x936 >= 0 ;
-1 x27 -1 x6 +1 x936 >= -1 ;
+1 x28 -1 x937 >= 0 ;
+1 x5 -1 x937 >= 0 ;
-1 x28 -1 x5 +1 x937 >= -1 ;
+1 x28 -1 x938 >= 0 ;
+1 x6 -1 x938 >= 0 ;
-1 x28 -1 x6 +1 x938 >= -1 ;
+1 x29 -1 x939 >= 0 ;
+1 x7 -1 x939 >= 0 ;
-1 x29 -1 x7 +1 x939 >= -1 ;
+1 x29 -1 x940 >= 0 ;
+1 x8 -1 x940 >= 0 ;
-1 x29 -1 x8 +1 x940 >= -1 ;
+1 x30 -1 x941 >= 0 ;
+1 x7 -1 x941 >= 0 ;
-1 x30 -1 x7 +1 x941 >= -1 ;
+1 x30 -1 x942 >= 0 ;
+1 x8 -1 x942 >= 0 ;
-1 x30 -1 x8 +1 x942 >= -1 ;
+1 x31 -1 x943 >= 0 ;
+1 x9 -1 x943 >= 0 ;
-1 x31 -1 x9 +1 x943 >= -1 ;
+1 x31 -1 x944 >= 0 ;
+1 x10 -1 x944 >= 0 ;
-1 x31 -1 x10 +1 x944 >= -1 ;
+1 x32 -1 x945 >= 0 ;
+1 x9 -1 x945 >= 0 ;
-1 x32 -1 x9 +1 x945 >= -1 ;
+1 x32 -1 x946 >= 0 ;
+1 x10 -1 x946 >= 0 ;
-1 x32 -1 x10 +1 x946 >= -1 ;
+1 x33 -1 x947 >= 0 ;
+1 x11 -1 x947 >= 0 ;
-1 x33 -1 x11 +1 x947 >= -1 ;
+1 x33 -1 x948 >= 0 ;
+1 x12 -1 x948 >= 0 ;
-1 x33 -1 x12 +1 x948 >= -1 ;
+1 x34 -1 x949 >= 0 ;
+1 x11 -1 x949 >= 0 ;
-1 x34 -1 x11 +1 x949 >= -1 ;
+1 x34 -1 x950 >= 0 ;
+1 x12 -1 x950 >= 0 ;
-1 x34 -1 x12 +1 x950 >= -1 ;
+1 x35 -1 x951 >= 0 ;
+1 x13 -1 x951 >= 0 ;
-1 x35 -1 x13 +1 x951 >= -1 ;
+1 x35 -1 x952 >= 0 ;
+1 x14 -1 x952 >= 0 ;
-1 x35 -1 x14 +1 x952 >= -1 ;
+1 x36 -1 x953 >= 0 ;
+1 x13 -1 x953 >= 0 ;
-1 x36 -1 x13 +1 x953 >= -1 ;
+1 x36 -1 x954 >= 0 ;
+1 x14 -1 x954 >= 0 ;
-1 x36 -1 x14 +1 x954 >= -1 ;
+1 x37 -1 x955 >= 0 ;
+1 x15 -1 x955 >= 0 ;
-1 x37 -1 x15 +1 x955 >= -1 ;
+1 x37 -1 x956 >= 0 ;
+1 x16 -1 x956 >= 0 ;
-1 x37 -1 x16 +1 x956 >= -1 ;
+1 x38 -1 x957 >= 0 ;
+1 x15 -1 x957 >= 0 ;
-1 x38 -1 x15 +1 x957 >= -1 ;
+1 x38 -1 x958 >= 0 ;
+1 x16 -1 x958 >= 0 ;
-1 x38 -1 x16 +1 x958 >= -1 ;
+1 x39 -1 x959 >= 0 ;
+1 x17 -1 x959 >= 0 ;
-1 x39 -1 x17 +1 x959 >= -1 ;
+1 x39 -1 x960 >= 0 ;
+1 x18 -1 x960 >= 0 ;
-1 x39 -1 x18 +1 x960 >= -1 ;
+1 x40 -1 x961 >= 0 ;
+1 x17 -1 x961 >= 0 ;
-1 x40 -1 x17 +1 x961 >= -1 ;
+1 x40 -1 x962 >= 0 ;
+1 x18 -1 x962 >= 0 ;
-1 x40 -1 x18 +1 x962 >= -1 ;
+1 x41 -1 x963 >= 0 ;
+1 x19 -1 x963 >= 0 ;
-1 x41 -1 x19 +1 x963 >= -1 ;
+1 x41 -1 x964 >= 0 ;
+1 x20 -1 x964 >= 0 ;
-1 x41 -1 x20 +1 x964 >= -1 ;
+1 x42 -1 x965 >= 0 ;
+1 x19 -1 x965 >= 0 ;
-1 x42 -1 x19 +1 x965 >= -1 ;
+1 x42 -1 x966 >= 0 ;
+1 x20 -1 x966 >= 0 ;
-1 x42 -1 x20 +1 x966 >= -1 ;
+1 x43 -1 x967 >= 0 ;
+1 x45 -1 x967 >= 0 ;
-1 x43 -1 x45 +1 x967 >= -1 ;
+1 x43 -1 x968 >= 0 ;
+1 x46 -1 x968 >= 0 ;
-1 x43 -1 x46 +1 x968 >= -1 ;
+1 x44 -1 x969 >= 0 ;
+1 x45 -1 x969 >= 0 ;
-1 x44 -1 x45 +1 x969 >= -1 ;
+1 x44 -1 x970 >= 0 ;
+1 x46 -1 x970 >= 0 ;
-1 x44 -1 x46 +1 x970 >= -1 ;
+1 x45 -1 x971 >= 0 ;
+1 x47 -1 x971 >= 0 ;
-1 x45 -1 x47 +1 x971 >= -1 ;
+1 x45 -1 x972 >= 0 ;
+1 x48 -1 x972 >= 0 ;
-1 x45 -1 x48 +1 x972 >= -1 ;
+1 x46 -1 x973 >= 0 ;
+1 x47 -1 x973 >= 0 ;
-1 x46 -1 x47 +1 x973 >= -1 ;
+1 x46 -1 x974 >= 0 ;
+1 x48 -1 x974 >= 0 ;
-1 x46 -1 x48 +1 x974 >= -1 ;
+1 x47 -1 x975 >= 0 ;
+1 x49 -1 x975 >= 0 ;
-1 x47 -1 x49 +1 x975 >= -1 ;
+1 x47 -1 x976 >= 0 ;
+1 x50 -1 x976 >= 0 ;
-1 x47 -1 x50 +1 x976 >= -1 ;
+1 x48 -1 x977 >= 0 ;
+1 x49 -1 x977 >= 0 ;
-1 x48 -1 x49 +1 x977 >= -1 ;
+1 x48 -1 x978 >= 0 ;
+1 x50 -1 x978 >= 0 ;
-1 x48 -1 x50 +1 x978 >= -1 ;
+1 x49 -1 x979 >= 0 ;
+1 x51 -1 x979 >= 0 ;
-1 x49 -1 x51 +1 x979 >= -1 ;
+1 x49 -1 x980 >= 0 ;
+1 x52 -1 x980 >= 0 ;
-1 x49 -1 x52 +1 x980 >= -1 ;
+1 x50 -1 x981 >= 0 ;
+1 x51 -1 x981 >= 0 ;
-1 x50 -1 x51 +1 x981 >= -1 ;
+1 x50 -1 x982 >= 0 ;
+1 x52 -1 x982 >= 0 ;
-1 x50 -1 x52 +1 x982 >= -1 ;
+1 x51 -1 x983 >= 0 ;
+1 x53 -1 x983 >= 0 ;
-1 x51 -1 x53 +1 x983 >= -1 ;
+1 x51 -1 x984 >= 0 ;
+1 x54 -1 x984 >= 0 ;
-1 x51 -1 x54 +1 x984 >= -1 ;
+1 x52 -1 x985 >= 0 ;
+1 x53 -1 x985 >= 0 ;
-1 x52 -1 x53 +1 x985 >= -1 ;
+1 x52 -1 x986 >= 0 ;
+1 x54 -1 x986 >= 0 ;
-1 x52 -1 x54 +1 x986 >= -1 ;
+1 x53 -1 x987 >= 0 ;
+1 x55 -1 x987 >= 0 ;
-1 x53 -1 x55 +1 x987 >= -1 ;
+1 x53 -1 x988 >= 0 ;
+1 x56 -1 x988 >= 0 ;
-1 x53 -1 x56 +1 x988 >= -1 ;
+1 x54 -1 x989 >= 0 ;
+1 x55 -1 x989 >= 0 ;
-1 x54 -1 x55 +1 x989 >= -1 ;
+1 x54 -1 x990 >= 0 ;
+1 x56 -1 x990 >= 0 ;
-1 x54 -1 x56 +1 x990 >= -1 ;
+1 x55 -1 x991 >= 0 ;
+1 x57 -1 x991 >= 0 ;
-1 x55 -1 x57 +1 x991 >= -1 ;
+1 x55 -1 x992 >= 0 ;
+1 x58 -1 x992 >= 0 ;
-1 x55 -1 x58 +1 x992 >= -1 ;
+1 x56 -1 x993 >= 0 ;
+1 x57 -1 x993 >= 0 ;
-1 x56 -1 x57 +1 x993 >= -1 ;
+1 x56 -1 x994 >= 0 ;
+1 x58 -1 x994 >= 0 ;
-1 x56 -1 x58 +1 x994 >= -1 ;
+1 x57 -1 x995 >= 0 ;
+1 x59 -1 x995 >= 0 ;
-1 x57 -1 x59 +1 x995 >= -1 ;
+1 x57 -1 x996 >= 0 ;
+1 x60 -1 x996 >= 0 ;
-1 x57 -1 x60 +1 x996 >= -1 ;
+1 x58 -1 x997 >= 0 ;
+1 x59 -1 x997 >= 0 ;
-1 x58 -1 x59 +1 x997 >= -1 ;
+1 x58 -1 x998 >= 0 ;
+1 x60 -1 x998 >= 0 ;
-1 x58 -1 x60 +1 x998 >= -1 ;
+1 x59 -1 x999 >= 0 ;
+1 x61 -1 x999 >= 0 ;
-1 x59 -1 x61 +1 x999 >= -1 ;
+1 x59 -1 x1000 >= 0 ;
+1 x62 -1 x1000 >= 0 ;
-1 x59 -1 x62 +1 x1000 >= -1 ;
+1 x60 -1 x1001 >= 0 ;
+1 x61 -1 x1001 >= 0 ;
-1 x60 -1 x61 +1 x1001 >= -1 ;
+1 x60 -1 x1002 >= 0 ;
+1 x62 -1 x1002 >= 0 ;
-1 x60 -1 x62 +1 x1002 >= -1 ;
+1 x61 -1 x1003 >= 0 ;
+1 x63 -1 x1003 >= 0 ;
-1 x61 -1 x63 +1 x1003 >= -1 ;
+1 x61 -1 x1004 >= 0 ;
+1 x64 -1 x1004 >= 0 ;
-1 x61 -1 x64 +1 x1004 >= -1 ;
+1 x62 -1 x1005 >= 0 ;
+1 x63 -1 x1005 >= 0 ;
-1 x62 -1 x63 +1 x1005 >= -1 ;
+1 x62 -1 x1006 >= 0 ;
+1 x64 -1 x1006 >= 0 ;
-1 x62 -1 x64 +1 x1006 >= -1 ;
+1 x63 -1 x1007 >= 0 ;
+1 x65 -1 x1007 >= 0 ;
-1 x63 -1 x65 +1 x1007 >= -1 ;
+1 x63 -1 x1008 >= 0 ;
+1 x66 -1 x1008 >= 0 ;
-1 x63 -1 x66 +1 x1008 >= -1 ;
+1 x64 -1 x1009 >= 0 ;
+1 x65 -1 x1009 >= 0 ;
-1 x64 -1 x65 +1 x1009 >= -1 ;
+1 x64 -1 x1010 >= 0 ;
+1 x66 -1 x1010 >= 0 ;
-1 x64 -1 x66 +1 x1010 >= -1 ;
+1 x65 -1 x1011 >= 0 ;
+1 x67 -1 x1011 >= 0 ;
-1 x65 -1 x67 +1 x1011 >= -1 ;
+1 x65 -1 x1012 >= 0 ;
+1 x68 -1 x1012 >= 0 ;
-1 x65 -1 x68 +1 x1012 >= -1 ;
+1 x66 -1 x1013 >= 0 ;
+1 x67 -1 x1013 >= 0 ;
-1 x66 -1 x67 +1 x1013 >= -1 ;
+1 x66 -1 x1014 >= 0 ;
+1 x68 -1 x1014 >= 0 ;
-1 x66 -1 x68 +1 x1014 >= -1 ;
+1 x67 -1 x1015 >= 0 ;
+1 x69 -1 x1015 >= 0 ;
-1 x67 -1 x69 +1 x1015 >= -1 ;
+1 x67 -1 x1016 >= 0 ;
+1 x70 -1 x1016 >= 0 ;
-1 x67 -1 x70 +1 x1016 >= -1 ;
+1 x68 -1 x1017 >= 0 ;
+1 x69 -1 x1017 >= 0 ;
-1 x68 -1 x69 +1 x1017 >= -1 ;
+1 x68 -1 x1018 >= 0 ;
+1 x70 -1 x1018 >= 0 ;
-1 x68 -1 x70 +1 x1018 >= -1 ;
+1 x69 -1 x1019 >= 0 ;
+1 x71 -1 x1019 >= 0 ;
-1 x69 -1 x71 +1 x1019 >= -1 ;
+1 x69 -1 x1020 >= 0 ;
+1 x72 -1 x1020 >= 0 ;
-1 x69 -1 x72 +1 x1020 >= -1 ;
+1 x70 -1 x1021 >= 0 ;
+1 x71 -1 x1021 >= 0 ;
-1 x70 -1 x71 +1 x1021 >= -1 ;
+1 x70 -1 x1022 >= 0 ;
+1 x72 -1 x1022 >= 0 ;
-1 x70 -1 x72 +1 x1022 >= -1 ;
+1 x71 -1 x1023 >= 0 ;
+1 x73 -1 x1023 >= 0 ;
-1 x71 -1 x73 +1 x1023 >= -1 ;
+1 x71 -1 x1024 >= 0 ;
+1 x74 -1 x1024 >= 0 ;
-1 x71 -1 x74 +1 x1024 >= -1 ;
+1 x72 -1 x1025 >= 0 ;
+1 x73 -1 x1025 >= 0 ;
-1 x72 -1 x73 +1 x1025 >= -1 ;
+1 x72 -1 x1026 >= 0 ;
+1 x74 -1 x1026 >= 0 ;
-1 x72 -1 x74 +1 x1026 >= -1 ;
+1 x73 -1 x1027 >= 0 ;
+1 x75 -1 x1027 >= 0 ;
-1 x73 -1 x75 +1 x1027 >= -1 ;
+1 x73 -1 x1028 >= 0 ;
+1 x76 -1 x1028 >= 0 ;
-1 x73 -1 x76 +1 x1028 >= -1 ;
+1 x74 -1 x1029 >= 0 ;
+1 x75 -1 x1029 >= 0 ;
-1 x74 -1 x75 +1 x1029 >= -1 ;
+1 x74 -1 x1030 >= 0 ;
+1 x76 -1 x1030 >= 0 ;
-1 x74 -1 x76 +1 x1030 >= -1 ;
+1 x75 -1 x1031 >= 0 ;
+1 x77 -1 x1031 >= 0 ;
-1 x75 -1 x77 +1 x1031 >= -1 ;
+1 x75 -1 x1032 >= 0 ;
+1 x78 -1 x1032 >= 0 ;
-1 x75 -1 x78 +1 x1032 >= -1 ;
+1 x76 -1 x1033 >= 0 ;
+1 x77 -1 x1033 >= 0 ;
-1 x76 -1 x77 +1 x1033 >= -1 ;
+1 x76 -1 x1034 >= 0 ;
+1 x78 -1 x1034 >= 0 ;
-1 x76 -1 x78 +1 x1034 >= -1 ;
+1 x77 -1 x1035 >= 0 ;
+1 x79 -1 x1035 >= 0 ;
-1 x77 -1 x79 +1 x1035 >= -1 ;
+1 x77 -1 x1036 >= 0 ;
+1 x80 -1 x1036 >= 0 ;
-1 x77 -1 x80 +1 x1036 >= -1 ;
+1 x78 -1 x1037 >= 0 ;
+1 x79 -1 x1037 >= 0 ;
-1 x78 -1 x79 +1 x1037 >= -1 ;
+1 x78 -1 x1038 >= 0 ;
+1 x80 -1 x1038 >= 0 ;
-1 x78 -1 x80 +1 x1038 >= -1 ;
+1 x79 -1 x1039 >= 0 ;
+1 x81 -1 x1039 >= 0 ;
-1 x79 -1 x81 +1 x1039 >= -1 ;
+1 x79 -1 x1040 >= 0 ;
+1 x82 -1 x1040 >= 0 ;
-1 x79 -1 x82 +1 x1040 >= -1 ;
+1 x80 -1 x1041 >= 0 ;
+1 x81 -1 x1041 >= 0 ;
-1 x80 -1 x81 +1 x1041 >= -1 ;
+1 x80 -1 x1042 >= 0 ;
+1 x82 -1 x1042 >= 0 ;
-1 x80 -1 x82 +1 x1042 >= -1 ;
+1 x81 -1 x1043 >= 0 ;
+1 x83 -1 x1043 >= 0 ;
-1 x81 -1 x83 +1 x1043 >= -1 ;
+1 x81 -1 x1044 >= 0 ;
+1 x84 -1 x1044 >= 0 ;
-1 x81 -1 x84 +1 x1044 >= -1 ;
+1 x82 -1 x1045 >= 0 ;
+1 x83 -1 x1045 >= 0 ;
-1 x82 -1 x83 +1 x1045 >= -1 ;
+1 x82 -1 x1046 >= 0 ;
+1 x84 -1 x1046 >= 0 ;
-1 x82 -1 x84 +1 x1046 >= -1 ;
+1 x83 -1 x1047 >= 0 ;
+1 x43 -1 x1047 >= 0 ;
-1 x83 -1 x43 +1 x1047 >= -1 ;
+1 x83 -1 x1048 >= 0 ;
+1 x44 -1 x1048 >= 0 ;
-1 x83 -1 x44 +1 x1048 >= -1 ;
+1 x84 -1 x1049 >= 0 ;
+1 x43 -1 x1049 >= 0 ;
-1 x84 -1 x43 +1 x1049 >= -1 ;
+1 x84 -1 x1050 >= 0 ;
+1 x44 -1 x1050 >= 0 ;
-1 x84 -1 x44 +1 x1050 >= -1 ;
+1 x43 -1 x1051 >= 0 ;
+1 x47 -1 x1051 >= 0 ;
-1 x43 -1 x47 +1 x1051 >= -1 ;
+1 x43 -1 x1052 >= 0 ;
+1 x48 -1 x1052 >= 0 ;
-1 x43 -1 x48 +1 x1052 >= -1 ;
+1 x44 -1 x1053 >= 0 ;
+1 x47 -1 x1053 >= 0 ;
-1 x44 -1 x47 +1 x1053 >= -1 ;
+1 x44 -1 x1054 >= 0 ;
+1 x48 -1 x1054 >= 0 ;
-1 x44 -1 x48 +1 x1054 >= -1 ;
+1 x45 -1 x1055 >= 0 ;
+1 x49 -1 x1055 >= 0 ;
-1 x45 -1 x49 +1 x1055 >= -1 ;
+1 x45 -1 x1056 >= 0 ;
+1 x50 -1 x1056 >= 0 ;
-1 x45 -1 x50 +1 x1056 >= -1 ;
+1 x46 -1 x1057 >= 0 ;
+1 x49 -1 x1057 >= 0 ;
-1 x46 -1 x49 +1 x1057 >= -1 ;
+1 x46 -1 x1058 >= 0 ;
+1 x50 -1 x1058 >= 0 ;
-1 x46 -1 x50 +1 x1058 >= -1 ;
+1 x47 -1 x1059 >= 0 ;
+1 x51 -1 x1059 >= 0 ;
-1 x47 -1 x51 +1 x1059 >= -1 ;
+1 x47 -1 x1060 >= 0 ;
+1 x52 -1 x1060 >= 0 ;
-1 x47 -1 x52 +1 x1060 >= -1 ;
+1 x48 -1 x1061 >= 0 ;
+1 x51 -1 x1061 >= 0 ;
-1 x48 -1 x51 +1 x1061 >= -1 ;
+1 x48 -1 x1062 >= 0 ;
+1 x52 -1 x1062 >= 0 ;
-1 x48 -1 x52 +1 x1062 >= -1 ;
+1 x49 -1 x1063 >= 0 ;
+1 x53 -1 x1063 >= 0 ;
-1 x49 -1 x53 +1 x1063 >= -1 ;
+1 x49 -1 x1064 >= 0 ;
+1 x54 -1 x1064 >= 0 ;
-1 x49 -1 x54 +1 x1064 >= -1 ;
+1 x50 -1 x1065 >= 0 ;
+1 x53 -1 x1065 >= 0 ;
-1 x50 -1 x53 +1 x1065 >= -1 ;
+1 x50 -1 x1066 >= 0 ;
+1 x54 -1 x1066 >= 0 ;
-1 x50 -1 x54 +1 x1066 >= -1 ;
+1 x51 -1 x1067 >= 0 ;
+1 x55 -1 x1067 >= 0 ;
-1 x51 -1 x55 +1 x1067 >= -1 ;
+1 x51 -1 x1068 >= 0 ;
+1 x56 -1 x1068 >= 0 ;
-1 x51 -1 x56 +1 x1068 >= -1 ;
+1 x52 -1 x1069 >= 0 ;
+1 x55 -1 x1069 >= 0 ;
-1 x52 -1 x55 +1 x1069 >= -1 ;
+1 x52 -1 x1070 >= 0 ;
+1 x56 -1 x1070 >= 0 ;
-1 x52 -1 x56 +1 x1070 >= -1 ;
+1 x53 -1 x1071 >= 0 ;
+1 x57 -1 x1071 >= 0 ;
-1 x53 -1 x57 +1 x1071 >= -1 ;
+1 x53 -1 x1072 >= 0 ;
+1 x58 -1 x1072 >= 0 ;
-1 x53 -1 x58 +1 x1072 >= -1 ;
+1 x54 -1 x1073 >= 0 ;
+1 x57 -1 x1073 >= 0 ;
-1 x54 -1 x57 +1 x1073 >= -1 ;
+1 x54 -1 x1074 >= 0 ;
+1 x58 -1 x1074 >= 0 ;
-1 x54 -1 x58 +1 x1074 >= -1 ;
+1 x55 -1 x1075 >= 0 ;
+1 x59 -1 x1075 >= 0 ;
-1 x55 -1 x59 +1 x1075 >= -1 ;
+1 x55 -1 x1076 >= 0 ;
+1 x60 -1 x1076 >= 0 ;
-1 x55 -1 x60 +1 x1076 >= -1 ;
+1 x56 -1 x1077 >= 0 ;
+1 x59 -1 x1077 >= 0 ;
-1 x56 -1 x59 +1 x1077 >= -1 ;
+1 x56 -1 x1078 >= 0 ;
+1 x60 -1 x1078 >= 0 ;
-1 x56 -1 x60 +1 x1078 >= -1 ;
+1 x57 -1 x1079 >= 0 ;
+1 x61 -1 x1079 >= 0 ;
-1 x57 -1 x61 +1 x1079 >= -1 ;
+1 x57 -1 x1080 >= 0 ;
+1 x62 -1 x1080 >= 0 ;
-1 x57 -1 x62 +1 x1080 >= -1 ;
+1 x58 -1 x1081 >= 0 ;
+1 x61 -1 x1081 >= 0 ;
-1 x58 -1 x61 +1 x1081 >= -1 ;
+1 x58 -1 x1082 >= 0 ;
+1 x62 -1 x1082 >= 0 ;
-1 x58 -1 x62 +1 x1082 >= -1 ;
+1 x59 -1 x1083 >= 0 ;
+1 x63 -1 x1083 >= 0 ;
-1 x59 -1 x63 +1 x1083 >= -1 ;
+1 x59 -1 x1084 >= 0 ;
+1 x64 -1 x1084 >= 0 ;
-1 x59 -1 x64 +1 x1084 >= -1 ;
+1 x60 -1 x1085 >= 0 ;
+1 x63 -1 x1085 >= 0 ;
-1 x60 -1 x63 +1 x1085 >= -1 ;
+1 x60 -1 x1086 >= 0 ;
+1 x64 -1 x1086 >= 0 ;
-1 x60 -1 x64 +1 x1086 >= -1 ;
+1 x61 -1 x1087 >= 0 ;
+1 x65 -1 x1087 >= 0 ;
-1 x61 -1 x65 +1 x1087 >= -1 ;
+1 x61 -1 x1088 >= 0 ;
+1 x66 -1 x1088 >= 0 ;
-1 x61 -1 x66 +1 x1088 >= -1 ;
+1 x62 -1 x1089 >= 0 ;
+1 x65 -1 x1089 >= 0 ;
-1 x62 -1 x65 +1 x1089 >= -1 ;
+1 x62 -1 x1090 >= 0 ;
+1 x66 -1 x1090 >= 0 ;
-1 x62 -1 x66 +1 x1090 >= -1 ;
+1 x63 -1 x1091 >= 0 ;
+1 x67 -1 x1091 >= 0 ;
-1 x63 -1 x67 +1 x1091 >= -1 ;
+1 x63 -1 x1092 >= 0 ;
+1 x68 -1 x1092 >= 0 ;
-1 x63 -1 x68 +1 x1092 >= -1 ;
+1 x64 -1 x1093 >= 0 ;
+1 x67 -1 x1093 >= 0 ;
-1 x64 -1 x67 +1 x1093 >= -1 ;
+1 x64 -1 x1094 >= 0 ;
+1 x68 -1 x1094 >= 0 ;
-1 x64 -1 x68 +1 x1094 >= -1 ;
+1 x65 -1 x1095 >= 0 ;
+1 x69 -1 x1095 >= 0 ;
-1 x65 -1 x69 +1 x1095 >= -1 ;
+1 x65 -1 x1096 >= 0 ;
+1 x70 -1 x1096 >= 0 ;
-1 x65 -1 x70 +1 x1096 >= -1 ;
+1 x66 -1 x1097 >= 0 ;
+1 x69 -1 x1097 >= 0 ;
-1 x66 -1 x69 +1 x1097 >= -1 ;
+1 x66 -1 x1098 >= 0 ;
+1 x70 -1 x1098 >= 0 ;
-1 x66 -1 x70 +1 x1098 >= -1 ;
+1 x67 -1 x1099 >= 0 ;
+1 x71 -1 x1099 >= 0 ;
-1 x67 -1 x71 +1 x1099 >= -1 ;
+1 x67 -1 x1100 >= 0 ;
+1 x72 -1 x1100 >= 0 ;
-1 x67 -1 x72 +1 x1100 >= -1 ;
+1 x68 -1 x1101 >= 0 ;
+1 x71 -1 x1101 >= 0 ;
-1 x68 -1 x71 +1 x1101 >= -1 ;
+1 x68 -1 x1102 >= 0 ;
+1 x72 -1 x1102 >= 0 ;
-1 x68 -1 x72 +1 x1102 >= -1 ;
+1 x69 -1 x1103 >= 0 ;
+1 x73 -1 x1103 >= 0 ;
-1 x69 -1 x73 +1 x1103 >= -1 ;
+1 x69 -1 x1104 >= 0 ;
+1 x74 -1 x1104 >= 0 ;
-1 x69 -1 x74 +1 x1104 >= -1 ;
+1 x70 -1 x1105 >= 0 ;
+1 x73 -1 x1105 >= 0 ;
-1 x70 -1 x73 +1 x1105 >= -1 ;
+1 x70 -1 x1106 >= 0 ;
+1 x74 -1 x1106 >= 0 ;
-1 x70 -1 x74 +1 x1106 >= -1 ;
+1 x71 -1 x1107 >= 0 ;
+1 x75 -1 x1107 >= 0 ;
-1 x71 -1 x75 +1 x1107 >= -1 ;
+1 x71 -1 x1108 >= 0 ;
+1 x76 -1 x1108 >= 0 ;
-1 x71 -1 x76 +1 x1108 >= -1 ;
+1 x72 -1 x1109 >= 0 ;
+1 x75 -1 x1109 >= 0 ;
-1 x72 -1 x75 +1 x1109 >= -1 ;
+1 x72 -1 x1110 >= 0 ;
+1 x76 -1 x1110 >= 0 ;
-1 x72 -1 x76 +1 x1110 >= -1 ;
+1 x73 -1 x1111 >= 0 ;
+1 x77 -1 x1111 >= 0 ;
-1 x73 -1 x77 +1 x1111 >= -1 ;
+1 x73 -1 x1112 >= 0 ;
+1 x78 -1 x1112 >= 0 ;
-1 x73 -1 x78 +1 x1112 >= -1 ;
+1 x74 -1 x1113 >= 0 ;
+1 x77 -1 x1113 >= 0 ;
-1 x74 -1 x77 +1 x1113 >= -1 ;
+1 x74 -1 x1114 >= 0 ;
+1 x78 -1 x1114 >= 0 ;
-1 x74 -1 x78 +1 x1114 >= -1 ;
+1 x75 -1 x1115 >= 0 ;
+1 x79 -1 x1115 >= 0 ;
-1 x75 -1 x79 +1 x1115 >= -1 ;
+1 x75 -1 x1116 >= 0 ;
+1 x80 -1 x1116 >= 0 ;
-1 x75 -1 x80 +1 x1116 >= -1 ;
+1 x76 -1 x1117 >= 0 ;
+1 x79 -1 x1117 >= 0 ;
-1 x76 -1 x79 +1 x1117 >= -1 ;
+1 x76 -1 x1118 >= 0 ;
+1 x80 -1 x1118 >= 0 ;
-1 x76 -1 x80 +1 x1118 >= -1 ;
+1 x77 -1 x1119 >= 0 ;
+1 x81 -1 x1119 >= 0 ;
-1 x77 -1 x81 +1 x1119 >= -1 ;
+1 x77 -1 x1120 >= 0 ;
+1 x82 -1 x1120 >= 0 ;
-1 x77 -1 x82 +1 x1120 >= -1 ;
+1 x78 -1 x1121 >= 0 ;
+1 x81 -1 x1121 >= 0 ;
-1 x78 -1 x81 +1 x1121 >= -1 ;
+1 x78 -1 x1122 >= 0 ;
+1 x82 -1 x1122 >= 0 ;
-1 x78 -1 x82 +1 x1122 >= -1 ;
+1 x79 -1 x1123 >= 0 ;
+1 x83 -1 x1123 >= 0 ;
-1 x79 -1 x83 +1 x1123 >= -1 ;
+1 x79 -1 x1124 >= 0 ;
+1 x84 -1 x1124 >= 0 ;
-1 x79 -1 x84 +1 x1124 >= -1 ;
+1 x80 -1 x1125 >= 0 ;
+1 x83 -1 x1125 >= 0 ;
-1 x80 -1 x83 +1 x1125 >= -1 ;
+1 x80 -1 x1126 >= 0 ;
+1 x84 -1 x1126 >= 0 ;
-1 x80 -1 x84 +1 x1126 >= -1 ;
+1 x81 -1 x1127 >= 0 ;
+1 x43 -1 x1127 >= 0 ;
-1 x81 -1 x43 +1 x1127 >= -1 ;
+1 x81 -1 x1128 >= 0 ;
+1 x44 -1 x1128 >= 0 ;
-1 x81 -1 x44 +1 x1128 >= -1 ;
+1 x82 -1 x1129 >= 0 ;
+1 x43 -1 x1129 >= 0 ;
-1 x82 -1 x43 +1 x1129 >= -1 ;
+1 x82 -1 x1130 >= 0 ;
+1 x44 -1 x1130 >= 0 ;
-1 x82 -1 x44 +1 x1130 >= -1 ;
+1 x83 -1 x1131 >= 0 ;
+1 x45 -1 x1131 >= 0 ;
-1 x83 -1 x45 +1 x1131 >= -1 ;
+1 x83 -1 x1132 >= 0 ;
+1 x46 -1 x1132 >= 0 ;
-1 x83 -1 x46 +1 x1132 >= -1 ;
+1 x84 -1 x1133 >= 0 ;
+1 x45 -1 x1133 >= 0 ;
-1 x84 -1 x45 +1 x1133 >= -1 ;
+1 x84 -1 x1134 >= 0 ;
+1 x46 -1 x1134 >= 0 ;
-1 x84 -1 x46 +1 x1134 >= -1 ;
+1 x43 -1 x1135 >= 0 ;
+1 x49 -1 x1135 >= 0 ;
-1 x43 -1 x49 +1 x1135 >= -1 ;
+1 x43 -1 x1136 >= 0 ;
+1 x50 -1 x1136 >= 0 ;
-1 x43 -1 x50 +1 x1136 >= -1 ;
+1 x44 -1 x1137 >= 0 ;
+1 x49 -1 x1137 >= 0 ;
-1 x44 -1 x49 +1 x1137 >= -1 ;
+1 x44 -1 x1138 >= 0 ;
+1 x50 -1 x1138 >= 0 ;
-1 x44 -1 x50 +1 x1138 >= -1 ;
+1 x45 -1 x1139 >= 0 ;
+1 x51 -1 x1139 >= 0 ;
-1 x45 -1 x51 +1 x1139 >= -1 ;
+1 x45 -1 x1140 >= 0 ;
+1 x52 -1 x1140 >= 0 ;
-1 x45 -1 x52 +1 x1140 >= -1 ;
+1 x46 -1 x1141 >= 0 ;
+1 x51 -1 x1141 >= 0 ;
-1 x46 -1 x51 +1 x1141 >= -1 ;
+1 x46 -1 x1142 >= 0 ;
+1 x52 -1 x1142 >= 0 ;
-1 x46 -1 x52 +1 x1142 >= -1 ;
+1 x47 -1 x1143 >= 0 ;
+1 x53 -1 x1143 >= 0 ;
-1 x47 -1 x53 +1 x1143 >= -1 ;
+1 x47 -1 x1144 >= 0 ;
+1 x54 -1 x1144 >= 0 ;
-1 x47 -1 x54 +1 x1144 >= -1 ;
+1 x48 -1 x1145 >= 0 ;
+1 x53 -1 x1145 >= 0 ;
-1 x48 -1 x53 +1 x1145 >= -1 ;
+1 x48 -1 x1146 >= 0 ;
+1 x54 -1 x1146 >= 0 ;
-1 x48 -1 x54 +1 x1146 >= -1 ;
+1 x49 -1 x1147 >= 0 ;
+1 x55 -1 x1147 >= 0 ;
-1 x49 -1 x55 +1 x1147 >= -1 ;
+1 x49 -1 x1148 >= 0 ;
+1 x56 -1 x1148 >= 0 ;
-1 x49 -1 x56 +1 x1148 >= -1 ;
+1 x50 -1 x1149 >= 0 ;
+1 x55 -1 x1149 >= 0 ;
-1 x50 -1 x55 +1 x1149 >= -1 ;
+1 x50 -1 x1150 >= 0 ;
+1 x56 -1 x1150 >= 0 ;
-1 x50 -1 x56 +1 x1150 >= -1 ;
+1 x51 -1 x1151 >= 0 ;
+1 x57 -1 x1151 >= 0 ;
-1 x51 -1 x57 +1 x1151 >= -1 ;
+1 x51 -1 x1152 >= 0 ;
+1 x58 -1 x1152 >= 0 ;
-1 x51 -1 x58 +1 x1152 >= -1 ;
+1 x52 -1 x1153 >= 0 ;
+1 x57 -1 x1153 >= 0 ;
-1 x52 -1 x57 +1 x1153 >= -1 ;
+1 x52 -1 x1154 >= 0 ;
+1 x58 -1 x1154 >= 0 ;
-1 x52 -1 x58 +1 x1154 >= -1 ;
+1 x53 -1 x1155 >= 0 ;
+1 x59 -1 x1155 >= 0 ;
-1 x53 -1 x59 +1 x1155 >= -1 ;
+1 x53 -1 x1156 >= 0 ;
+1 x60 -1 x1156 >= 0 ;
-1 x53 -1 x60 +1 x1156 >= -1 ;
+1 x54 -1 x1157 >= 0 ;
+1 x59 -1 x1157 >= 0 ;
-1 x54 -1 x59 +1 x1157 >= -1 ;
+1 x54 -1 x1158 >= 0 ;
+1 x60 -1 x1158 >= 0 ;
-1 x54 -1 x60 +1 x1158 >= -1 ;
+1 x55 -1 x1159 >= 0 ;
+1 x61 -1 x1159 >= 0 ;
-1 x55 -1 x61 +1 x1159 >= -1 ;
+1 x55 -1 x1160 >= 0 ;
+1 x62 -1 x1160 >= 0 ;
-1 x55 -1 x62 +1 x1160 >= -1 ;
+1 x56 -1 x1161 >= 0 ;
+1 x61 -1 x1161 >= 0 ;
-1 x56 -1 x61 +1 x1161 >= -1 ;
+1 x56 -1 x1162 >= 0 ;
+1 x62 -1 x1162 >= 0 ;
-1 x56 -1 x62 +1 x1162 >= -1 ;
+1 x57 -1 x1163 >= 0 ;
+1 x63 -1 x1163 >= 0 ;
-1 x57 -1 x63 +1 x1163 >= -1 ;
+1 x57 -1 x1164 >= 0 ;
+1 x64 -1 x1164 >= 0 ;
-1 x57 -1 x64 +1 x1164 >= -1 ;
+1 x58 -1 x1165 >= 0 ;
+1 x63 -1 x1165 >= 0 ;
-1 x58 -1 x63 +1 x1165 >= -1 ;
+1 x58 -1 x1166 >= 0 ;
+1 x64 -1 x1166 >= 0 ;
-1 x58 -1 x64 +1 x1166 >= -1 ;
+1 x59 -1 x1167 >= 0 ;
+1 x65 -1 x1167 >= 0 ;
-1 x59 -1 x65 +1 x1167 >= -1 ;
+1 x59 -1 x1168 >= 0 ;
+1 x66 -1 x1168 >= 0 ;
-1 x59 -1 x66 +1 x1168 >= -1 ;
+1 x60 -1 x1169 >= 0 ;
+1 x65 -1 x1169 >= 0 ;
-1 x60 -1 x65 +1 x1169 >= -1 ;
+1 x60 -1 x1170 >= 0 ;
+1 x66 -1 x1170 >= 0 ;
-1 x60 -1 x66 +1 x1170 >= -1 ;
+1 x61 -1 x1171 >= 0 ;
+1 x67 -1 x1171 >= 0 ;
-1 x61 -1 x67 +1 x1171 >= -1 ;
+1 x61 -1 x1172 >= 0 ;
+1 x68 -1 x1172 >= 0 ;
-1 x61 -1 x68 +1 x1172 >= -1 ;
+1 x62 -1 x1173 >= 0 ;
+1 x67 -1 x1173 >= 0 ;
-1 x62 -1 x67 +1 x1173 >= -1 ;
+1 x62 -1 x1174 >= 0 ;
+1 x68 -1 x1174 >= 0 ;
-1 x62 -1 x68 +1 x1174 >= -1 ;
+1 x63 -1 x1175 >= 0 ;
+1 x69 -1 x1175 >= 0 ;
-1 x63 -1 x69 +1 x1175 >= -1 ;
+1 x63 -1 x1176 >= 0 ;
+1 x70 -1 x1176 >= 0 ;
-1 x63 -1 x70 +1 x1176 >= -1 ;
+1 x64 -1 x1177 >= 0 ;
+1 x69 -1 x1177 >= 0 ;
-1 x64 -1 x69 +1 x1177 >= -1 ;
+1 x64 -1 x1178 >= 0 ;
+1 x70 -1 x1178 >= 0 ;
-1 x64 -1 x70 +1 x1178 >= -1 ;
+1 x65 -1 x1179 >= 0 ;
+1 x71 -1 x1179 >= 0 ;
-1 x65 -1 x71 +1 x1179 >= -1 ;
+1 x65 -1 x1180 >= 0 ;
+1 x72 -1 x1180 >= 0 ;
-1 x65 -1 x72 +1 x1180 >= -1 ;
+1 x66 -1 x1181 >= 0 ;
+1 x71 -1 x1181 >= 0 ;
-1 x66 -1 x71 +1 x1181 >= -1 ;
+1 x66 -1 x1182 >= 0 ;
+1 x72 -1 x1182 >= 0 ;
-1 x66 -1 x72 +1 x1182 >= -1 ;
+1 x67 -1 x1183 >= 0 ;
+1 x73 -1 x1183 >= 0 ;
-1 x67 -1 x73 +1 x1183 >= -1 ;
+1 x67 -1 x1184 >= 0 ;
+1 x74 -1 x1184 >= 0 ;
-1 x67 -1 x74 +1 x1184 >= -1 ;
+1 x68 -1 x1185 >= 0 ;
+1 x73 -1 x1185 >= 0 ;
-1 x68 -1 x73 +1 x1185 >= -1 ;
+1 x68 -1 x1186 >= 0 ;
+1 x74 -1 x1186 >= 0 ;
-1 x68 -1 x74 +1 x1186 >= -1 ;
+1 x69 -1 x1187 >= 0 ;
+1 x75 -1 x1187 >= 0 ;
-1 x69 -1 x75 +1 x1187 >= -1 ;
+1 x69 -1 x1188 >= 0 ;
+1 x76 -1 x1188 >= 0 ;
-1 x69 -1 x76 +1 x1188 >= -1 ;
+1 x70 -1 x1189 >= 0 ;
+1 x75 -1 x1189 >= 0 ;
-1 x70 -1 x75 +1 x1189 >= -1 ;
+1 x70 -1 x1190 >= 0 ;
+1 x76 -1 x1190 >= 0 ;
-1 x70 -1 x76 +1 x1190 >= -1 ;
+1 x71 -1 x1191 >= 0 ;
+1 x77 -1 x1191 >= 0 ;
-1 x71 -1 x77 +1 x1191 >= -1 ;
+1 x71 -1 x1192 >= 0 ;
+1 x78 -1 x1192 >= 0 ;
-1 x71 -1 x78 +1 x1192 >= -1 ;
+1 x72 -1 x1193 >= 0 ;
+1 x77 -1 x1193 >= 0 ;
-1 x72 -1 x77 +1 x1193 >= -1 ;
+1 x72 -1 x1194 >= 0 ;
+1 x78 -1 x1194 >= 0 ;
-1 x72 -1 x78 +1 x1194 >= -1 ;
+1 x73 -1 x1195 >= 0 ;
+1 x79 -1 x1195 >= 0 ;
-1 x73 -1 x79 +1 x1195 >= -1 ;
+1 x73 -1 x1196 >= 0 ;
+1 x80 -1 x1196 >= 0 ;
-1 x73 -1 x80 +1 x1196 >= -1 ;
+1 x74 -1 x1197 >= 0 ;
+1 x79 -1 x1197 >= 0 ;
-1 x74 -1 x79 +1 x1197 >= -1 ;
+1 x74 -1 x1198 >= 0 ;
+1 x80 -1 x1198 >= 0 ;
-1 x74 -1 x80 +1 x1198 >= -1 ;
+1 x75 -1 x1199 >= 0 ;
+1 x81 -1 x1199 >= 0 ;
-1 x75 -1 x81 +1 x1199 >= -1 ;
+1 x75 -1 x1200 >= 0 ;
+1 x82 -1 x1200 >= 0 ;
-1 x75 -1 x82 +1 x1200 >= -1 ;
+1 x76 -1 x1201 >= 0 ;
+1 x81 -1 x1201 >= 0 ;
-1 x76 -1 x81 +1 x1201 >= -1 ;
+1 x76 -1 x1202 >= 0 ;
+1 x82 -1 x1202 >= 0 ;
-1 x76 -1 x82 +1 x1202 >= -1 ;
+1 x77 -1 x1203 >= 0 ;
+1 x83 -1 x1203 >= 0 ;
-1 x77 -1 x83 +1 x1203 >= -1 ;
+1 x77 -1 x1204 >= 0 ;
+1 x84 -1 x1204 >= 0 ;
-1 x77 -1 x84 +1 x1204 >= -1 ;
+1 x78 -1 x1205 >= 0 ;
+1 x83 -1 x1205 >= 0 ;
-1 x78 -1 x83 +1 x1205 >= -1 ;
+1 x78 -1 x1206 >= 0 ;
+1 x84 -1 x1206 >= 0 ;
-1 x78 -1 x84 +1 x1206 >= -1 ;
+1 x79 -1 x1207 >= 0 ;
+1 x43 -1 x1207 >= 0 ;
-1 x79 -1 x43 +1 x1207 >= -1 ;
+1 x79 -1 x1208 >= 0 ;
+1 x44 -1 x1208 >= 0 ;
-1 x79 -1 x44 +1 x1208 >= -1 ;
+1 x80 -1 x1209 >= 0 ;
+1 x43 -1 x1209 >= 0 ;
-1 x80 -1 x43 +1 x1209 >= -1 ;
+1 x80 -1 x1210 >= 0 ;
+1 x44 -1 x1210 >= 0 ;
-1 x80 -1 x44 +1 x1210 >= -1 ;
+1 x81 -1 x1211 >= 0 ;
+1 x45 -1 x1211 >= 0 ;
-1 x81 -1 x45 +1 x1211 >= -1 ;
+1 x81 -1 x1212 >= 0 ;
+1 x46 -1 x1212 >= 0 ;
-1 x81 -1 x46 +1 x1212 >= -1 ;
+1 x82 -1 x1213 >= 0 ;
+1 x45 -1 x1213 >= 0 ;
-1 x82 -1 x45 +1 x1213 >= -1 ;
+1 x82 -1 x1214 >= 0 ;
+1 x46 -1 x1214 >= 0 ;
-1 x82 -1 x46 +1 x1214 >= -1 ;
+1 x83 -1 x1215 >= 0 ;
+1 x47 -1 x1215 >= 0 ;
-1 x83 -1 x47 +1 x1215 >= -1 ;
+1 x83 -1 x1216 >= 0 ;
+1 x48 -1 x1216 >= 0 ;
-1 x83 -1 x48 +1 x1216 >= -1 ;
+1 x84 -1 x1217 >= 0 ;
+1 x47 -1 x1217 >= 0 ;
-1 x84 -1 x47 +1 x1217 >= -1 ;
+1 x84 -1 x1218 >= 0 ;
+1 x48 -1 x1218 >= 0 ;
-1 x84 -1 x48 +1 x1218 >= -1 ;
+1 x43 -1 x1219 >= 0 ;
+1 x51 -1 x1219 >= 0 ;
-1 x43 -1 x51 +1 x1219 >= -1 ;
+1 x43 -1 x1220 >= 0 ;
+1 x52 -1 x1220 >= 0 ;
-1 x43 -1 x52 +1 x1220 >= -1 ;
+1 x44 -1 x1221 >= 0 ;
+1 x51 -1 x1221 >= 0 ;
-1 x44 -1 x51 +1 x1221 >= -1 ;
+1 x44 -1 x1222 >= 0 ;
+1 x52 -1 x1222 >= 0 ;
-1 x44 -1 x52 +1 x1222 >= -1 ;
+1 x45 -1 x1223 >= 0 ;
+1 x53 -1 x1223 >= 0 ;
-1 x45 -1 x53 +1 x1223 >= -1 ;
+1 x45 -1 x1224 >= 0 ;
+1 x54 -1 x1224 >= 0 ;
-1 x45 -1 x54 +1 x1224 >= -1 ;
+1 x46 -1 x1225 >= 0 ;
+1 x53 -1 x1225 >= 0 ;
-1 x46 -1 x53 +1 x1225 >= -1 ;
+1 x46 -1 x1226 >= 0 ;
+1 x54 -1 x1226 >= 0 ;
-1 x46 -1 x54 +1 x1226 >= -1 ;
+1 x47 -1 x1227 >= 0 ;
+1 x55 -1 x1227 >= 0 ;
-1 x47 -1 x55 +1 x1227 >= -1 ;
+1 x47 -1 x1228 >= 0 ;
+1 x56 -1 x1228 >= 0 ;
-1 x47 -1 x56 +1 x1228 >= -1 ;
+1 x48 -1 x1229 >= 0 ;
+1 x55 -1 x1229 >= 0 ;
-1 x48 -1 x55 +1 x1229 >= -1 ;
+1 x48 -1 x1230 >= 0 ;
+1 x56 -1 x1230 >= 0 ;
-1 x48 -1 x56 +1 x1230 >= -1 ;
+1 x49 -1 x1231 >= 0 ;
+1 x57 -1 x1231 >= 0 ;
-1 x49 -1 x57 +1 x1231 >= -1 ;
+1 x49 -1 x1232 >= 0 ;
+1 x58 -1 x1232 >= 0 ;
-1 x49 -1 x58 +1 x1232 >= -1 ;
+1 x50 -1 x1233 >= 0 ;
+1 x57 -1 x1233 >= 0 ;
-1 x50 -1 x57 +1 x1233 >= -1 ;
+1 x50 -1 x1234 >= 0 ;
+1 x58 -1 x1234 >= 0 ;
-1 x50 -1 x58 +1 x1234 >= -1 ;
+1 x51 -1 x1235 >= 0 ;
+1 x59 -1 x1235 >= 0 ;
-1 x51 -1 x59 +1 x1235 >= -1 ;
+1 x51 -1 x1236 >= 0 ;
+1 x60 -1 x1236 >= 0 ;
-1 x51 -1 x60 +1 x1236 >= -1 ;
+1 x52 -1 x1237 >= 0 ;
+1 x59 -1 x1237 >= 0 ;
-1 x52 -1 x59 +1 x1237 >= -1 ;
+1 x52 -1 x1238 >= 0 ;
+1 x60 -1 x1238 >= 0 ;
-1 x52 -1 x60 +1 x1238 >= -1 ;
+1 x53 -1 x1239 >= 0 ;
+1 x61 -1 x1239 >= 0 ;
-1 x53 -1 x61 +1 x1239 >= -1 ;
+1 x53 -1 x1240 >= 0 ;
+1 x62 -1 x1240 >= 0 ;
-1 x53 -1 x62 +1 x1240 >= -1 ;
+1 x54 -1 x1241 >= 0 ;
+1 x61 -1 x1241 >= 0 ;
-1 x54 -1 x61 +1 x1241 >= -1 ;
+1 x54 -1 x1242 >= 0 ;
+1 x62 -1 x1242 >= 0 ;
-1 x54 -1 x62 +1 x1242 >= -1 ;
+1 x55 -1 x1243 >= 0 ;
+1 x63 -1 x1243 >= 0 ;
-1 x55 -1 x63 +1 x1243 >= -1 ;
+1 x55 -1 x1244 >= 0 ;
+1 x64 -1 x1244 >= 0 ;
-1 x55 -1 x64 +1 x1244 >= -1 ;
+1 x56 -1 x1245 >= 0 ;
+1 x63 -1 x1245 >= 0 ;
-1 x56 -1 x63 +1 x1245 >= -1 ;
+1 x56 -1 x1246 >= 0 ;
+1 x64 -1 x1246 >= 0 ;
-1 x56 -1 x64 +1 x1246 >= -1 ;
+1 x57 -1 x1247 >= 0 ;
+1 x65 -1 x1247 >= 0 ;
-1 x57 -1 x65 +1 x1247 >= -1 ;
+1 x57 -1 x1248 >= 0 ;
+1 x66 -1 x1248 >= 0 ;
-1 x57 -1 x66 +1 x1248 >= -1 ;
+1 x58 -1 x1249 >= 0 ;
+1 x65 -1 x1249 >= 0 ;
-1 x58 -1 x65 +1 x1249 >= -1 ;
+1 x58 -1 x1250 >= 0 ;
+1 x66 -1 x1250 >= 0 ;
-1 x58 -1 x66 +1 x1250 >= -1 ;
+1 x59 -1 x1251 >= 0 ;
+1 x67 -1 x1251 >= 0 ;
-1 x59 -1 x67 +1 x1251 >= -1 ;
+1 x59 -1 x1252 >= 0 ;
+1 x68 -1 x1252 >= 0 ;
-1 x59 -1 x68 +1 x1252 >= -1 ;
+1 x60 -1 x1253 >= 0 ;
+1 x67 -1 x1253 >= 0 ;
-1 x60 -1 x67 +1 x1253 >= -1 ;
+1 x60 -1 x1254 >= 0 ;
+1 x68 -1 x1254 >= 0 ;
-1 x60 -1 x68 +1 x1254 >= -1 ;
+1 x61 -1 x1255 >= 0 ;
+1 x69 -1 x1255 >= 0 ;
-1 x61 -1 x69 +1 x1255 >= -1 ;
+1 x61 -1 x1256 >= 0 ;
+1 x70 -1 x1256 >= 0 ;
-1 x61 -1 x70 +1 x1256 >= -1 ;
+1 x62 -1 x1257 >= 0 ;
+1 x69 -1 x1257 >= 0 ;
-1 x62 -1 x69 +1 x1257 >= -1 ;
+1 x62 -1 x1258 >= 0 ;
+1 x70 -1 x1258 >= 0 ;
-1 x62 -1 x70 +1 x1258 >= -1 ;
+1 x63 -1 x1259 >= 0 ;
+1 x71 -1 x1259 >= 0 ;
-1 x63 -1 x71 +1 x1259 >= -1 ;
+1 x63 -1 x1260 >= 0 ;
+1 x72 -1 x1260 >= 0 ;
-1 x63 -1 x72 +1 x1260 >= -1 ;
+1 x64 -1 x1261 >= 0 ;
+1 x71 -1 x1261 >= 0 ;
-1 x64 -1 x71 +1 x1261 >= -1 ;
+1 x64 -1 x1262 >= 0 ;
+1 x72 -1 x1262 >= 0 ;
-1 x64 -1 x72 +1 x1262 >= -1 ;
+1 x65 -1 x1263 >= 0 ;
+1 x73 -1 x1263 >= 0 ;
-1 x65 -1 x73 +1 x1263 >= -1 ;
+1 x65 -1 x1264 >= 0 ;
+1 x74 -1 x1264 >= 0 ;
-1 x65 -1 x74 +1 x1264 >= -1 ;
+1 x66 -1 x1265 >= 0 ;
+1 x73 -1 x1265 >= 0 ;
-1 x66 -1 x73 +1 x1265 >= -1 ;
+1 x66 -1 x1266 >= 0 ;
+1 x74 -1 x1266 >= 0 ;
-1 x66 -1 x74 +1 x1266 >= -1 ;
+1 x67 -1 x1267 >= 0 ;
+1 x75 -1 x1267 >= 0 ;
-1 x67 -1 x75 +1 x1267 >= -1 ;
+1 x67 -1 x1268 >= 0 ;
+1 x76 -1 x1268 >= 0 ;
-1 x67 -1 x76 +1 x1268 >= -1 ;
+1 x68 -1 x1269 >= 0 ;
+1 x75 -1 x1269 >= 0 ;
-1 x68 -1 x75 +1 x1269 >= -1 ;
+1 x68 -1 x1270 >= 0 ;
+1 x76 -1 x1270 >= 0 ;
-1 x68 -1 x76 +1 x1270 >= -1 ;
+1 x69 -1 x1271 >= 0 ;
+1 x77 -1 x1271 >= 0 ;
-1 x69 -1 x77 +1 x1271 >= -1 ;
+1 x69 -1 x1272 >= 0 ;
+1 x78 -1 x1272 >= 0 ;
-1 x69 -1 x78 +1 x1272 >= -1 ;
+1 x70 -1 x1273 >= 0 ;
+1 x77 -1 x1273 >= 0 ;
-1 x70 -1 x77 +1 x1273 >= -1 ;
+1 x70 -1 x1274 >= 0 ;
+1 x78 -1 x1274 >= 0 ;
-1 x70 -1 x78 +1 x1274 >= -1 ;
+1 x71 -1 x1275 >= 0 ;
+1 x79 -1 x1275 >= 0 ;
-1 x71 -1 x79 +1 x1275 >= -1 ;
+1 x71 -1 x1276 >= 0 ;
+1 x80 -1 x1276 >= 0 ;
-1 x71 -1 x80 +1 x1276 >= -1 ;
+1 x72 -1 x1277 >= 0 ;
+1 x79 -1 x1277 >= 0 ;
-1 x72 -1 x79 +1 x1277 >= -1 ;
+1 x72 -1 x1278 >= 0 ;
+1 x80 -1 x1278 >= 0 ;
-1 x72 -1 x80 +1 x1278 >= -1 ;
+1 x73 -1 x1279 >= 0 ;
+1 x81 -1 x1279 >= 0 ;
-1 x73 -1 x81 +1 x1279 >= -1 ;
+1 x73 -1 x1280 >= 0 ;
+1 x82 -1 x1280 >= 0 ;
-1 x73 -1 x82 +1 x1280 >= -1 ;
+1 x74 -1 x1281 >= 0 ;
+1 x81 -1 x1281 >= 0 ;
-1 x74 -1 x81 +1 x1281 >= -1 ;
+1 x74 -1 x1282 >= 0 ;
+1 x82 -1 x1282 >= 0 ;
-1 x74 -1 x82 +1 x1282 >= -1 ;
+1 x75 -1 x1283 >= 0 ;
+1 x83 -1 x1283 >= 0 ;
-1 x75 -1 x83 +1 x1283 >= -1 ;
+1 x75 -1 x1284 >= 0 ;
+1 x84 -1 x1284 >= 0 ;
-1 x75 -1 x84 +1 x1284 >= -1 ;
+1 x76 -1 x1285 >= 0 ;
+1 x83 -1 x1285 >= 0 ;
-1 x76 -1 x83 +1 x1285 >= -1 ;
+1 x76 -1 x1286 >= 0 ;
+1 x84 -1 x1286 >= 0 ;
-1 x76 -1 x84 +1 x1286 >= -1 ;
+1 x77 -1 x1287 >= 0 ;
+1 x43 -1 x1287 >= 0 ;
-1 x77 -1 x43 +1 x1287 >= -1 ;
+1 x77 -1 x1288 >= 0 ;
+1 x44 -1 x1288 >= 0 ;
-1 x77 -1 x44 +1 x1288 >= -1 ;
+1 x78 -1 x1289 >= 0 ;
+1 x43 -1 x1289 >= 0 ;
-1 x78 -1 x43 +1 x1289 >= -1 ;
+1 x78 -1 x1290 >= 0 ;
+1 x44 -1 x1290 >= 0 ;
-1 x78 -1 x44 +1 x1290 >= -1 ;
+1 x79 -1 x1291 >= 0 ;
+1 x45 -1 x1291 >= 0 ;
-1 x79 -1 x45 +1 x1291 >= -1 ;
+1 x79 -1 x1292 >= 0 ;
+1 x46 -1 x1292 >= 0 ;
-1 x79 -1 x46 +1 x1292 >= -1 ;
+1 x80 -1 x1293 >= 0 ;
+1 x45 -1 x1293 >= 0 ;
-1 x80 -1 x45 +1 x1293 >= -1 ;
+1 x80 -1 x1294 >= 0 ;
+1 x46 -1 x1294 >= 0 ;
-1 x80 -1 x46 +1 x1294 >= -1 ;
+1 x81 -1 x1295 >= 0 ;
+1 x47 -1 x1295 >= 0 ;
-1 x81 -1 x47 +1 x1295 >= -1 ;
+1 x81 -1 x1296 >= 0 ;
+1 x48 -1 x1296 >= 0 ;
-1 x81 -1 x48 +1 x1296 >= -1 ;
+1 x82 -1 x1297 >= 0 ;
+1 x47 -1 x1297 >= 0 ;
-1 x82 -1 x47 +1 x1297 >= -1 ;
+1 x82 -1 x1298 >= 0 ;
+1 x48 -1 x1298 >= 0 ;
-1 x82 -1 x48 +1 x1298 >= -1 ;
+1 x83 -1 x1299 >= 0 ;
+1 x49 -1 x1299 >= 0 ;
-1 x83 -1 x49 +1 x1299 >= -1 ;
+1 x83 -1 x1300 >= 0 ;
+1 x50 -1 x1300 >= 0 ;
-1 x83 -1 x50 +1 x1300 >= -1 ;
+1 x84 -1 x1301 >= 0 ;
+1 x49 -1 x1301 >= 0 ;
-1 x84 -1 x49 +1 x1301 >= -1 ;
+1 x84 -1 x1302 >= 0 ;
+1 x50 -1 x1302 >= 0 ;
-1 x84 -1 x50 +1 x1302 >= -1 ;
+1 x43 -1 x1303 >= 0 ;
+1 x53 -1 x1303 >= 0 ;
-1 x43 -1 x53 +1 x1303 >= -1 ;
+1 x43 -1 x1304 >= 0 ;
+1 x54 -1 x1304 >= 0 ;
-1 x43 -1 x54 +1 x1304 >= -1 ;
+1 x44 -1 x1305 >= 0 ;
+1 x53 -1 x1305 >= 0 ;
-1 x44 -1 x53 +1 x1305 >= -1 ;
+1 x44 -1 x1306 >= 0 ;
+1 x54 -1 x1306 >= 0 ;
-1 x44 -1 x54 +1 x1306 >= -1 ;
+1 x45 -1 x1307 >= 0 ;
+1 x55 -1 x1307 >= 0 ;
-1 x45 -1 x55 +1 x1307 >= -1 ;
+1 x45 -1 x1308 >= 0 ;
+1 x56 -1 x1308 >= 0 ;
-1 x45 -1 x56 +1 x1308 >= -1 ;
+1 x46 -1 x1309 >= 0 ;
+1 x55 -1 x1309 >= 0 ;
-1 x46 -1 x55 +1 x1309 >= -1 ;
+1 x46 -1 x1310 >= 0 ;
+1 x56 -1 x1310 >= 0 ;
-1 x46 -1 x56 +1 x1310 >= -1 ;
+1 x47 -1 x1311 >= 0 ;
+1 x57 -1 x1311 >= 0 ;
-1 x47 -1 x57 +1 x1311 >= -1 ;
+1 x47 -1 x1312 >= 0 ;
+1 x58 -1 x1312 >= 0 ;
-1 x47 -1 x58 +1 x1312 >= -1 ;
+1 x48 -1 x1313 >= 0 ;
+1 x57 -1 x1313 >= 0 ;
-1 x48 -1 x57 +1 x1313 >= -1 ;
+1 x48 -1 x1314 >= 0 ;
+1 x58 -1 x1314 >= 0 ;
-1 x48 -1 x58 +1 x1314 >= -1 ;
+1 x49 -1 x1315 >= 0 ;
+1 x59 -1 x1315 >= 0 ;
-1 x49 -1 x59 +1 x1315 >= -1 ;
+1 x49 -1 x1316 >= 0 ;
+1 x60 -1 x1316 >= 0 ;
-1 x49 -1 x60 +1 x1316 >= -1 ;
+1 x50 -1 x1317 >= 0 ;
+1 x59 -1 x1317 >= 0 ;
-1 x50 -1 x59 +1 x1317 >= -1 ;
+1 x50 -1 x1318 >= 0 ;
+1 x60 -1 x1318 >= 0 ;
-1 x50 -1 x60 +1 x1318 >= -1 ;
+1 x51 -1 x1319 >= 0 ;
+1 x61 -1 x1319 >= 0 ;
-1 x51 -1 x61 +1 x1319 >= -1 ;
+1 x51 -1 x1320 >= 0 ;
+1 x62 -1 x1320 >= 0 ;
-1 x51 -1 x62 +1 x1320 >= -1 ;
+1 x52 -1 x1321 >= 0 ;
+1 x61 -1 x1321 >= 0 ;
-1 x52 -1 x61 +1 x1321 >= -1 ;
+1 x52 -1 x1322 >= 0 ;
+1 x62 -1 x1322 >= 0 ;
-1 x52 -1 x62 +1 x1322 >= -1 ;
+1 x53 -1 x1323 >= 0 ;
+1 x63 -1 x1323 >= 0 ;
-1 x53 -1 x63 +1 x1323 >= -1 ;
+1 x53 -1 x1324 >= 0 ;
+1 x64 -1 x1324 >= 0 ;
-1 x53 -1 x64 +1 x1324 >= -1 ;
+1 x54 -1 x1325 >= 0 ;
+1 x63 -1 x1325 >= 0 ;
-1 x54 -1 x63 +1 x1325 >= -1 ;
+1 x54 -1 x1326 >= 0 ;
+1 x64 -1 x1326 >= 0 ;
-1 x54 -1 x64 +1 x1326 >= -1 ;
+1 x55 -1 x1327 >= 0 ;
+1 x65 -1 x1327 >= 0 ;
-1 x55 -1 x65 +1 x1327 >= -1 ;
+1 x55 -1 x1328 >= 0 ;
+1 x66 -1 x1328 >= 0 ;
-1 x55 -1 x66 +1 x1328 >= -1 ;
+1 x56 -1 x1329 >= 0 ;
+1 x65 -1 x1329 >= 0 ;
-1 x56 -1 x65 +1 x1329 >= -1 ;
+1 x56 -1 x1330 >= 0 ;
+1 x66 -1 x1330 >= 0 ;
-1 x56 -1 x66 +1 x1330 >= -1 ;
+1 x57 -1 x1331 >= 0 ;
+1 x67 -1 x1331 >= 0 ;
-1 x57 -1 x67 +1 x1331 >= -1 ;
+1 x57 -1 x1332 >= 0 ;
+1 x68 -1 x1332 >= 0 ;
-1 x57 -1 x68 +1 x1332 >= -1 ;
+1 x58 -1 x1333 >= 0 ;
+1 x67 -1 x1333 >= 0 ;
-1 x58 -1 x67 +1 x1333 >= -1 ;
+1 x58 -1 x1334 >= 0 ;
+1 x68 -1 x1334 >= 0 ;
-1 x58 -1 x68 +1 x1334 >= -1 ;
+1 x59 -1 x1335 >= 0 ;
+1 x69 -1 x1335 >= 0 ;
-1 x59 -1 x69 +1 x1335 >= -1 ;
+1 x59 -1 x1336 >= 0 ;
+1 x70 -1 x1336 >= 0 ;
-1 x59 -1 x70 +1 x1336 >= -1 ;
+1 x60 -1 x1337 >= 0 ;
+1 x69 -1 x1337 >= 0 ;
-1 x60 -1 x69 +1 x1337 >= -1 ;
+1 x60 -1 x1338 >= 0 ;
+1 x70 -1 x1338 >= 0 ;
-1 x60 -1 x70 +1 x1338 >= -1 ;
+1 x61 -1 x1339 >= 0 ;
+1 x71 -1 x1339 >= 0 ;
-1 x61 -1 x71 +1 x1339 >= -1 ;
+1 x61 -1 x1340 >= 0 ;
+1 x72 -1 x1340 >= 0 ;
-1 x61 -1 x72 +1 x1340 >= -1 ;
+1 x62 -1 x1341 >= 0 ;
+1 x71 -1 x1341 >= 0 ;
-1 x62 -1 x71 +1 x1341 >= -1 ;
+1 x62 -1 x1342 >= 0 ;
+1 x72 -1 x1342 >= 0 ;
-1 x62 -1 x72 +1 x1342 >= -1 ;
+1 x63 -1 x1343 >= 0 ;
+1 x73 -1 x1343 >= 0 ;
-1 x63 -1 x73 +1 x1343 >= -1 ;
+1 x63 -1 x1344 >= 0 ;
+1 x74 -1 x1344 >= 0 ;
-1 x63 -1 x74 +1 x1344 >= -1 ;
+1 x64 -1 x1345 >= 0 ;
+1 x73 -1 x1345 >= 0 ;
-1 x64 -1 x73 +1 x1345 >= -1 ;
+1 x64 -1 x1346 >= 0 ;
+1 x74 -1 x1346 >= 0 ;
-1 x64 -1 x74 +1 x1346 >= -1 ;
+1 x65 -1 x1347 >= 0 ;
+1 x75 -1 x1347 >= 0 ;
-1 x65 -1 x75 +1 x1347 >= -1 ;
+1 x65 -1 x1348 >= 0 ;
+1 x76 -1 x1348 >= 0 ;
-1 x65 -1 x76 +1 x1348 >= -1 ;
+1 x66 -1 x1349 >= 0 ;
+1 x75 -1 x1349 >= 0 ;
-1 x66 -1 x75 +1 x1349 >= -1 ;
+1 x66 -1 x1350 >= 0 ;
+1 x76 -1 x1350 >= 0 ;
-1 x66 -1 x76 +1 x1350 >= -1 ;
+1 x67 -1 x1351 >= 0 ;
+1 x77 -1 x1351 >= 0 ;
-1 x67 -1 x77 +1 x1351 >= -1 ;
+1 x67 -1 x1352 >= 0 ;
+1 x78 -1 x1352 >= 0 ;
-1 x67 -1 x78 +1 x1352 >= -1 ;
+1 x68 -1 x1353 >= 0 ;
+1 x77 -1 x1353 >= 0 ;
-1 x68 -1 x77 +1 x1353 >= -1 ;
+1 x68 -1 x1354 >= 0 ;
+1 x78 -1 x1354 >= 0 ;
-1 x68 -1 x78 +1 x1354 >= -1 ;
+1 x69 -1 x1355 >= 0 ;
+1 x79 -1 x1355 >= 0 ;
-1 x69 -1 x79 +1 x1355 >= -1 ;
+1 x69 -1 x1356 >= 0 ;
+1 x80 -1 x1356 >= 0 ;
-1 x69 -1 x80 +1 x1356 >= -1 ;
+1 x70 -1 x1357 >= 0 ;
+1 x79 -1 x1357 >= 0 ;
-1 x70 -1 x79 +1 x1357 >= -1 ;
+1 x70 -1 x1358 >= 0 ;
+1 x80 -1 x1358 >= 0 ;
-1 x70 -1 x80 +1 x1358 >= -1 ;
+1 x71 -1 x1359 >= 0 ;
+1 x81 -1 x1359 >= 0 ;
-1 x71 -1 x81 +1 x1359 >= -1 ;
+1 x71 -1 x1360 >= 0 ;
+1 x82 -1 x1360 >= 0 ;
-1 x71 -1 x82 +1 x1360 >= -1 ;
+1 x72 -1 x1361 >= 0 ;
+1 x81 -1 x1361 >= 0 ;
-1 x72 -1 x81 +1 x1361 >= -1 ;
+1 x72 -1 x1362 >= 0 ;
+1 x82 -1 x1362 >= 0 ;
-1 x72 -1 x82 +1 x1362 >= -1 ;
+1 x73 -1 x1363 >= 0 ;
+1 x83 -1 x1363 >= 0 ;
-1 x73 -1 x83 +1 x1363 >= -1 ;
+1 x73 -1 x1364 >= 0 ;
+1 x84 -1 x1364 >= 0 ;
-1 x73 -1 x84 +1 x1364 >= -1 ;
+1 x74 -1 x1365 >= 0 ;
+1 x83 -1 x1365 >= 0 ;
-1 x74 -1 x83 +1 x1365 >= -1 ;
+1 x74 -1 x1366 >= 0 ;
+1 x84 -1 x1366 >= 0 ;
-1 x74 -1 x84 +1 x1366 >= -1 ;
+1 x75 -1 x1367 >= 0 ;
+1 x43 -1 x1367 >= 0 ;
-1 x75 -1 x43 +1 x1367 >= -1 ;
+1 x75 -1 x1368 >= 0 ;
+1 x44 -1 x1368 >= 0 ;
-1 x75 -1 x44 +1 x1368 >= -1 ;
+1 x76 -1 x1369 >= 0 ;
+1 x43 -1 x1369 >= 0 ;
-1 x76 -1 x43 +1 x1369 >= -1 ;
+1 x76 -1 x1370 >= 0 ;
+1 x44 -1 x1370 >= 0 ;
-1 x76 -1 x44 +1 x1370 >= -1 ;
+1 x77 -1 x1371 >= 0 ;
+1 x45 -1 x1371 >= 0 ;
-1 x77 -1 x45 +1 x1371 >= -1 ;
+1 x77 -1 x1372 >= 0 ;
+1 x46 -1 x1372 >= 0 ;
-1 x77 -1 x46 +1 x1372 >= -1 ;
+1 x78 -1 x1373 >= 0 ;
+1 x45 -1 x1373 >= 0 ;
-1 x78 -1 x45 +1 x1373 >= -1 ;
+1 x78 -1 x1374 >= 0 ;
+1 x46 -1 x1374 >= 0 ;
-1 x78 -1 x46 +1 x1374 >= -1 ;
+1 x79 -1 x1375 >= 0 ;
+1 x47 -1 x1375 >= 0 ;
-1 x79 -1 x47 +1 x1375 >= -1 ;
+1 x79 -1 x1376 >= 0 ;
+1 x48 -1 x1376 >= 0 ;
-1 x79 -1 x48 +1 x1376 >= -1 ;
+1 x80 -1 x1377 >= 0 ;
+1 x47 -1 x1377 >= 0 ;
-1 x80 -1 x47 +1 x1377 >= -1 ;
+1 x80 -1 x1378 >= 0 ;
+1 x48 -1 x1378 >= 0 ;
-1 x80 -1 x48 +1 x1378 >= -1 ;
+1 x81 -1 x1379 >= 0 ;
+1 x49 -1 x1379 >= 0 ;
-1 x81 -1 x49 +1 x1379 >= -1 ;
+1 x81 -1 x1380 >= 0 ;
+1 x50 -1 x1380 >= 0 ;
-1 x81 -1 x50 +1 x1380 >= -1 ;
+1 x82 -1 x1381 >= 0 ;
+1 x49 -1 x1381 >= 0 ;
-1 x82 -1 x49 +1 x1381 >= -1 ;
+1 x82 -1 x1382 >= 0 ;
+1 x50 -1 x1382 >= 0 ;
-1 x82 -1 x50 +1 x1382 >= -1 ;
+1 x83 -1 x1383 >= 0 ;
+1 x51 -1 x1383 >= 0 ;
-1 x83 -1 x51 +1 x1383 >= -1 ;
+1 x83 -1 x1384 >= 0 ;
+1 x52 -1 x1384 >= 0 ;
-1 x83 -1 x52 +1 x1384 >= -1 ;
+1 x84 -1 x1385 >= 0 ;
+1 x51 -1 x1385 >= 0 ;
-1 x84 -1 x51 +1 x1385 >= -1 ;
+1 x84 -1 x1386 >= 0 ;
+1 x52 -1 x1386 >= 0 ;
-1 x84 -1 x52 +1 x1386 >= -1 ;
+1 x43 -1 x1387 >= 0 ;
+1 x55 -1 x1387 >= 0 ;
-1 x43 -1 x55 +1 x1387 >= -1 ;
+1 x43 -1 x1388 >= 0 ;
+1 x56 -1 x1388 >= 0 ;
-1 x43 -1 x56 +1 x1388 >= -1 ;
+1 x44 -1 x1389 >= 0 ;
+1 x55 -1 x1389 >= 0 ;
-1 x44 -1 x55 +1 x1389 >= -1 ;
+1 x44 -1 x1390 >= 0 ;
+1 x56 -1 x1390 >= 0 ;
-1 x44 -1 x56 +1 x1390 >= -1 ;
+1 x45 -1 x1391 >= 0 ;
+1 x57 -1 x1391 >= 0 ;
-1 x45 -1 x57 +1 x1391 >= -1 ;
+1 x45 -1 x1392 >= 0 ;
+1 x58 -1 x1392 >= 0 ;
-1 x45 -1 x58 +1 x1392 >= -1 ;
+1 x46 -1 x1393 >= 0 ;
+1 x57 -1 x1393 >= 0 ;
-1 x46 -1 x57 +1 x1393 >= -1 ;
+1 x46 -1 x1394 >= 0 ;
+1 x58 -1 x1394 >= 0 ;
-1 x46 -1 x58 +1 x1394 >= -1 ;
+1 x47 -1 x1395 >= 0 ;
+1 x59 -1 x1395 >= 0 ;
-1 x47 -1 x59 +1 x1395 >= -1 ;
+1 x47 -1 x1396 >= 0 ;
+1 x60 -1 x1396 >= 0 ;
-1 x47 -1 x60 +1 x1396 >= -1 ;
+1 x48 -1 x1397 >= 0 ;
+1 x59 -1 x1397 >= 0 ;
-1 x48 -1 x59 +1 x1397 >= -1 ;
+1 x48 -1 x1398 >= 0 ;
+1 x60 -1 x1398 >= 0 ;
-1 x48 -1 x60 +1 x1398 >= -1 ;
+1 x49 -1 x1399 >= 0 ;
+1 x61 -1 x1399 >= 0 ;
-1 x49 -1 x61 +1 x1399 >= -1 ;
+1 x49 -1 x1400 >= 0 ;
+1 x62 -1 x1400 >= 0 ;
-1 x49 -1 x62 +1 x1400 >= -1 ;
+1 x50 -1 x1401 >= 0 ;
+1 x61 -1 x1401 >= 0 ;
-1 x50 -1 x61 +1 x1401 >= -1 ;
+1 x50 -1 x1402 >= 0 ;
+1 x62 -1 x1402 >= 0 ;
-1 x50 -1 x62 +1 x1402 >= -1 ;
+1 x51 -1 x1403 >= 0 ;
+1 x63 -1 x1403 >= 0 ;
-1 x51 -1 x63 +1 x1403 >= -1 ;
+1 x51 -1 x1404 >= 0 ;
+1 x64 -1 x1404 >= 0 ;
-1 x51 -1 x64 +1 x1404 >= -1 ;
+1 x52 -1 x1405 >= 0 ;
+1 x63 -1 x1405 >= 0 ;
-1 x52 -1 x63 +1 x1405 >= -1 ;
+1 x52 -1 x1406 >= 0 ;
+1 x64 -1 x1406 >= 0 ;
-1 x52 -1 x64 +1 x1406 >= -1 ;
+1 x53 -1 x1407 >= 0 ;
+1 x65 -1 x1407 >= 0 ;
-1 x53 -1 x65 +1 x1407 >= -1 ;
+1 x53 -1 x1408 >= 0 ;
+1 x66 -1 x1408 >= 0 ;
-1 x53 -1 x66 +1 x1408 >= -1 ;
+1 x54 -1 x1409 >= 0 ;
+1 x65 -1 x1409 >= 0 ;
-1 x54 -1 x65 +1 x1409 >= -1 ;
+1 x54 -1 x1410 >= 0 ;
+1 x66 -1 x1410 >= 0 ;
-1 x54 -1 x66 +1 x1410 >= -1 ;
+1 x55 -1 x1411 >= 0 ;
+1 x67 -1 x1411 >= 0 ;
-1 x55 -1 x67 +1 x1411 >= -1 ;
+1 x55 -1 x1412 >= 0 ;
+1 x68 -1 x1412 >= 0 ;
-1 x55 -1 x68 +1 x1412 >= -1 ;
+1 x56 -1 x1413 >= 0 ;
+1 x67 -1 x1413 >= 0 ;
-1 x56 -1 x67 +1 x1413 >= -1 ;
+1 x56 -1 x1414 >= 0 ;
+1 x68 -1 x1414 >= 0 ;
-1 x56 -1 x68 +1 x1414 >= -1 ;
+1 x57 -1 x1415 >= 0 ;
+1 x69 -1 x1415 >= 0 ;
-1 x57 -1 x69 +1 x1415 >= -1 ;
+1 x57 -1 x1416 >= 0 ;
+1 x70 -1 x1416 >= 0 ;
-1 x57 -1 x70 +1 x1416 >= -1 ;
+1 x58 -1 x1417 >= 0 ;
+1 x69 -1 x1417 >= 0 ;
-1 x58 -1 x69 +1 x1417 >= -1 ;
+1 x58 -1 x1418 >= 0 ;
+1 x70 -1 x1418 >= 0 ;
-1 x58 -1 x70 +1 x1418 >= -1 ;
+1 x59 -1 x1419 >= 0 ;
+1 x71 -1 x1419 >= 0 ;
-1 x59 -1 x71 +1 x1419 >= -1 ;
+1 x59 -1 x1420 >= 0 ;
+1 x72 -1 x1420 >= 0 ;
-1 x59 -1 x72 +1 x1420 >= -1 ;
+1 x60 -1 x1421 >= 0 ;
+1 x71 -1 x1421 >= 0 ;
-1 x60 -1 x71 +1 x1421 >= -1 ;
+1 x60 -1 x1422 >= 0 ;
+1 x72 -1 x1422 >= 0 ;
-1 x60 -1 x72 +1 x1422 >= -1 ;
+1 x61 -1 x1423 >= 0 ;
+1 x73 -1 x1423 >= 0 ;
-1 x61 -1 x73 +1 x1423 >= -1 ;
+1 x61 -1 x1424 >= 0 ;
+1 x74 -1 x1424 >= 0 ;
-1 x61 -1 x74 +1 x1424 >= -1 ;
+1 x62 -1 x1425 >= 0 ;
+1 x73 -1 x1425 >= 0 ;
-1 x62 -1 x73 +1 x1425 >= -1 ;
+1 x62 -1 x1426 >= 0 ;
+1 x74 -1 x1426 >= 0 ;
-1 x62 -1 x74 +1 x1426 >= -1 ;
+1 x63 -1 x1427 >= 0 ;
+1 x75 -1 x1427 >= 0 ;
-1 x63 -1 x75 +1 x1427 >= -1 ;
+1 x63 -1 x1428 >= 0 ;
+1 x76 -1 x1428 >= 0 ;
-1 x63 -1 x76 +1 x1428 >= -1 ;
+1 x64 -1 x1429 >= 0 ;
+1 x75 -1 x1429 >= 0 ;
-1 x64 -1 x75 +1 x1429 >= -1 ;
+1 x64 -1 x1430 >= 0 ;
+1 x76 -1 x1430 >= 0 ;
-1 x64 -1 x76 +1 x1430 >= -1 ;
+1 x65 -1 x1431 >= 0 ;
+1 x77 -1 x1431 >= 0 ;
-1 x65 -1 x77 +1 x1431 >= -1 ;
+1 x65 -1 x1432 >= 0 ;
+1 x78 -1 x1432 >= 0 ;
-1 x65 -1 x78 +1 x1432 >= -1 ;
+1 x66 -1 x1433 >= 0 ;
+1 x77 -1 x1433 >= 0 ;
-1 x66 -1 x77 +1 x1433 >= -1 ;
+1 x66 -1 x1434 >= 0 ;
+1 x78 -1 x1434 >= 0 ;
-1 x66 -1 x78 +1 x1434 >= -1 ;
+1 x67 -1 x1435 >= 0 ;
+1 x79 -1 x1435 >= 0 ;
-1 x67 -1 x79 +1 x1435 >= -1 ;
+1 x67 -1 x1436 >= 0 ;
+1 x80 -1 x1436 >= 0 ;
-1 x67 -1 x80 +1 x1436 >= -1 ;
+1 x68 -1 x1437 >= 0 ;
+1 x79 -1 x1437 >= 0 ;
-1 x68 -1 x79 +1 x1437 >= -1 ;
+1 x68 -1 x1438 >= 0 ;
+1 x80 -1 x1438 >= 0 ;
-1 x68 -1 x80 +1 x1438 >= -1 ;
+1 x69 -1 x1439 >= 0 ;
+1 x81 -1 x1439 >= 0 ;
-1 x69 -1 x81 +1 x1439 >= -1 ;
+1 x69 -1 x1440 >= 0 ;
+1 x82 -1 x1440 >= 0 ;
-1 x69 -1 x82 +1 x1440 >= -1 ;
+1 x70 -1 x1441 >= 0 ;
+1 x81 -1 x1441 >= 0 ;
-1 x70 -1 x81 +1 x1441 >= -1 ;
+1 x70 -1 x1442 >= 0 ;
+1 x82 -1 x1442 >= 0 ;
-1 x70 -1 x82 +1 x1442 >= -1 ;
+1 x71 -1 x1443 >= 0 ;
+1 x83 -1 x1443 >= 0 ;
-1 x71 -1 x83 +1 x1443 >= -1 ;
+1 x71 -1 x1444 >= 0 ;
+1 x84 -1 x1444 >= 0 ;
-1 x71 -1 x84 +1 x1444 >= -1 ;
+1 x72 -1 x1445 >= 0 ;
+1 x83 -1 x1445 >= 0 ;
-1 x72 -1 x83 +1 x1445 >= -1 ;
+1 x72 -1 x1446 >= 0 ;
+1 x84 -1 x1446 >= 0 ;
-1 x72 -1 x84 +1 x1446 >= -1 ;
+1 x73 -1 x1447 >= 0 ;
+1 x43 -1 x1447 >= 0 ;
-1 x73 -1 x43 +1 x1447 >= -1 ;
+1 x73 -1 x1448 >= 0 ;
+1 x44 -1 x1448 >= 0 ;
-1 x73 -1 x44 +1 x1448 >= -1 ;
+1 x74 -1 x1449 >= 0 ;
+1 x43 -1 x1449 >= 0 ;
-1 x74 -1 x43 +1 x1449 >= -1 ;
+1 x74 -1 x1450 >= 0 ;
+1 x44 -1 x1450 >= 0 ;
-1 x74 -1 x44 +1 x1450 >= -1 ;
+1 x75 -1 x1451 >= 0 ;
+1 x45 -1 x1451 >= 0 ;
-1 x75 -1 x45 +1 x1451 >= -1 ;
+1 x75 -1 x1452 >= 0 ;
+1 x46 -1 x1452 >= 0 ;
-1 x75 -1 x46 +1 x1452 >= -1 ;
+1 x76 -1 x1453 >= 0 ;
+1 x45 -1 x1453 >= 0 ;
-1 x76 -1 x45 +1 x1453 >= -1 ;
+1 x76 -1 x1454 >= 0 ;
+1 x46 -1 x1454 >= 0 ;
-1 x76 -1 x46 +1 x1454 >= -1 ;
+1 x77 -1 x1455 >= 0 ;
+1 x47 -1 x1455 >= 0 ;
-1 x77 -1 x47 +1 x1455 >= -1 ;
+1 x77 -1 x1456 >= 0 ;
+1 x48 -1 x1456 >= 0 ;
-1 x77 -1 x48 +1 x1456 >= -1 ;
+1 x78 -1 x1457 >= 0 ;
+1 x47 -1 x1457 >= 0 ;
-1 x78 -1 x47 +1 x1457 >= -1 ;
+1 x78 -1 x1458 >= 0 ;
+1 x48 -1 x1458 >= 0 ;
-1 x78 -1 x48 +1 x1458 >= -1 ;
+1 x79 -1 x1459 >= 0 ;
+1 x49 -1 x1459 >= 0 ;
-1 x79 -1 x49 +1 x1459 >= -1 ;
+1 x79 -1 x1460 >= 0 ;
+1 x50 -1 x1460 >= 0 ;
-1 x79 -1 x50 +1 x1460 >= -1 ;
+1 x80 -1 x1461 >= 0 ;
+1 x49 -1 x1461 >= 0 ;
-1 x80 -1 x49 +1 x1461 >= -1 ;
+1 x80 -1 x1462 >= 0 ;
+1 x50 -1 x1462 >= 0 ;
-1 x80 -1 x50 +1 x1462 >= -1 ;
+1 x81 -1 x1463 >= 0 ;
+1 x51 -1 x1463 >= 0 ;
-1 x81 -1 x51 +1 x1463 >= -1 ;
+1 x81 -1 x1464 >= 0 ;
+1 x52 -1 x1464 >= 0 ;
-1 x81 -1 x52 +1 x1464 >= -1 ;
+1 x82 -1 x1465 >= 0 ;
+1 x51 -1 x1465 >= 0 ;
-1 x82 -1 x51 +1 x1465 >= -1 ;
+1 x82 -1 x1466 >= 0 ;
+1 x52 -1 x1466 >= 0 ;
-1 x82 -1 x52 +1 x1466 >= -1 ;
+1 x83 -1 x1467 >= 0 ;
+1 x53 -1 x1467 >= 0 ;
-1 x83 -1 x53 +1 x1467 >= -1 ;
+1 x83 -1 x1468 >= 0 ;
+1 x54 -1 x1468 >= 0 ;
-1 x83 -1 x54 +1 x1468 >= -1 ;
+1 x84 -1 x1469 >= 0 ;
+1 x53 -1 x1469 >= 0 ;
-1 x84 -1 x53 +1 x1469 >= -1 ;
+1 x84 -1 x1470 >= 0 ;
+1 x54 -1 x1470 >= 0 ;
-1 x84 -1 x54 +1 x1470 >= -1 ;
+1 x43 -1 x1471 >= 0 ;
+1 x57 -1 x1471 >= 0 ;
-1 x43 -1 x57 +1 x1471 >= -1 ;
+1 x43 -1 x1472 >= 0 ;
+1 x58 -1 x1472 >= 0 ;
-1 x43 -1 x58 +1 x1472 >= -1 ;
+1 x44 -1 x1473 >= 0 ;
+1 x57 -1 x1473 >= 0 ;
-1 x44 -1 x57 +1 x1473 >= -1 ;
+1 x44 -1 x1474 >= 0 ;
+1 x58 -1 x1474 >= 0 ;
-1 x44 -1 x58 +1 x1474 >= -1 ;
+1 x45 -1 x1475 >= 0 ;
+1 x59 -1 x1475 >= 0 ;
-1 x45 -1 x59 +1 x1475 >= -1 ;
+1 x45 -1 x1476 >= 0 ;
+1 x60 -1 x1476 >= 0 ;
-1 x45 -1 x60 +1 x1476 >= -1 ;
+1 x46 -1 x1477 >= 0 ;
+1 x59 -1 x1477 >= 0 ;
-1 x46 -1 x59 +1 x1477 >= -1 ;
+1 x46 -1 x1478 >= 0 ;
+1 x60 -1 x1478 >= 0 ;
-1 x46 -1 x60 +1 x1478 >= -1 ;
+1 x47 -1 x1479 >= 0 ;
+1 x61 -1 x1479 >= 0 ;
-1 x47 -1 x61 +1 x1479 >= -1 ;
+1 x47 -1 x1480 >= 0 ;
+1 x62 -1 x1480 >= 0 ;
-1 x47 -1 x62 +1 x1480 >= -1 ;
+1 x48 -1 x1481 >= 0 ;
+1 x61 -1 x1481 >= 0 ;
-1 x48 -1 x61 +1 x1481 >= -1 ;
+1 x48 -1 x1482 >= 0 ;
+1 x62 -1 x1482 >= 0 ;
-1 x48 -1 x62 +1 x1482 >= -1 ;
+1 x49 -1 x1483 >= 0 ;
+1 x63 -1 x1483 >= 0 ;
-1 x49 -1 x63 +1 x1483 >= -1 ;
+1 x49 -1 x1484 >= 0 ;
+1 x64 -1 x1484 >= 0 ;
-1 x49 -1 x64 +1 x1484 >= -1 ;
+1 x50 -1 x1485 >= 0 ;
+1 x63 -1 x1485 >= 0 ;
-1 x50 -1 x63 +1 x1485 >= -1 ;
+1 x50 -1 x1486 >= 0 ;
+1 x64 -1 x1486 >= 0 ;
-1 x50 -1 x64 +1 x1486 >= -1 ;
+1 x51 -1 x1487 >= 0 ;
+1 x65 -1 x1487 >= 0 ;
-1 x51 -1 x65 +1 x1487 >= -1 ;
+1 x51 -1 x1488 >= 0 ;
+1 x66 -1 x1488 >= 0 ;
-1 x51 -1 x66 +1 x1488 >= -1 ;
+1 x52 -1 x1489 >= 0 ;
+1 x65 -1 x1489 >= 0 ;
-1 x52 -1 x65 +1 x1489 >= -1 ;
+1 x52 -1 x1490 >= 0 ;
+1 x66 -1 x1490 >= 0 ;
-1 x52 -1 x66 +1 x1490 >= -1 ;
+1 x53 -1 x1491 >= 0 ;
+1 x67 -1 x1491 >= 0 ;
-1 x53 -1 x67 +1 x1491 >= -1 ;
+1 x53 -1 x1492 >= 0 ;
+1 x68 -1 x1492 >= 0 ;
-1 x53 -1 x68 +1 x1492 >= -1 ;
+1 x54 -1 x1493 >= 0 ;
+1 x67 -1 x1493 >= 0 ;
-1 x54 -1 x67 +1 x1493 >= -1 ;
+1 x54 -1 x1494 >= 0 ;
+1 x68 -1 x1494 >= 0 ;
-1 x54 -1 x68 +1 x1494 >= -1 ;
+1 x55 -1 x1495 >= 0 ;
+1 x69 -1 x1495 >= 0 ;
-1 x55 -1 x69 +1 x1495 >= -1 ;
+1 x55 -1 x1496 >= 0 ;
+1 x70 -1 x1496 >= 0 ;
-1 x55 -1 x70 +1 x1496 >= -1 ;
+1 x56 -1 x1497 >= 0 ;
+1 x69 -1 x1497 >= 0 ;
-1 x56 -1 x69 +1 x1497 >= -1 ;
+1 x56 -1 x1498 >= 0 ;
+1 x70 -1 x1498 >= 0 ;
-1 x56 -1 x70 +1 x1498 >= -1 ;
+1 x57 -1 x1499 >= 0 ;
+1 x71 -1 x1499 >= 0 ;
-1 x57 -1 x71 +1 x1499 >= -1 ;
+1 x57 -1 x1500 >= 0 ;
+1 x72 -1 x1500 >= 0 ;
-1 x57 -1 x72 +1 x1500 >= -1 ;
+1 x58 -1 x1501 >= 0 ;
+1 x71 -1 x1501 >= 0 ;
-1 x58 -1 x71 +1 x1501 >= -1 ;
+1 x58 -1 x1502 >= 0 ;
+1 x72 -1 x1502 >= 0 ;
-1 x58 -1 x72 +1 x1502 >= -1 ;
+1 x59 -1 x1503 >= 0 ;
+1 x73 -1 x1503 >= 0 ;
-1 x59 -1 x73 +1 x1503 >= -1 ;
+1 x59 -1 x1504 >= 0 ;
+1 x74 -1 x1504 >= 0 ;
-1 x59 -1 x74 +1 x1504 >= -1 ;
+1 x60 -1 x1505 >= 0 ;
+1 x73 -1 x1505 >= 0 ;
-1 x60 -1 x73 +1 x1505 >= -1 ;
+1 x60 -1 x1506 >= 0 ;
+1 x74 -1 x1506 >= 0 ;
-1 x60 -1 x74 +1 x1506 >= -1 ;
+1 x61 -1 x1507 >= 0 ;
+1 x75 -1 x1507 >= 0 ;
-1 x61 -1 x75 +1 x1507 >= -1 ;
+1 x61 -1 x1508 >= 0 ;
+1 x76 -1 x1508 >= 0 ;
-1 x61 -1 x76 +1 x1508 >= -1 ;
+1 x62 -1 x1509 >= 0 ;
+1 x75 -1 x1509 >= 0 ;
-1 x62 -1 x75 +1 x1509 >= -1 ;
+1 x62 -1 x1510 >= 0 ;
+1 x76 -1 x1510 >= 0 ;
-1 x62 -1 x76 +1 x1510 >= -1 ;
+1 x63 -1 x1511 >= 0 ;
+1 x77 -1 x1511 >= 0 ;
-1 x63 -1 x77 +1 x1511 >= -1 ;
+1 x63 -1 x1512 >= 0 ;
+1 x78 -1 x1512 >= 0 ;
-1 x63 -1 x78 +1 x1512 >= -1 ;
+1 x64 -1 x1513 >= 0 ;
+1 x77 -1 x1513 >= 0 ;
-1 x64 -1 x77 +1 x1513 >= -1 ;
+1 x64 -1 x1514 >= 0 ;
+1 x78 -1 x1514 >= 0 ;
-1 x64 -1 x78 +1 x1514 >= -1 ;
+1 x65 -1 x1515 >= 0 ;
+1 x79 -1 x1515 >= 0 ;
-1 x65 -1 x79 +1 x1515 >= -1 ;
+1 x65 -1 x1516 >= 0 ;
+1 x80 -1 x1516 >= 0 ;
-1 x65 -1 x80 +1 x1516 >= -1 ;
+1 x66 -1 x1517 >= 0 ;
+1 x79 -1 x1517 >= 0 ;
-1 x66 -1 x79 +1 x1517 >= -1 ;
+1 x66 -1 x1518 >= 0 ;
+1 x80 -1 x1518 >= 0 ;
-1 x66 -1 x80 +1 x1518 >= -1 ;
+1 x67 -1 x1519 >= 0 ;
+1 x81 -1 x1519 >= 0 ;
-1 x67 -1 x81 +1 x1519 >= -1 ;
+1 x67 -1 x1520 >= 0 ;
+1 x82 -1 x1520 >= 0 ;
-1 x67 -1 x82 +1 x1520 >= -1 ;
+1 x68 -1 x1521 >= 0 ;
+1 x81 -1 x1521 >= 0 ;
-1 x68 -1 x81 +1 x1521 >= -1 ;
+1 x68 -1 x1522 >= 0 ;
+1 x82 -1 x1522 >= 0 ;
-1 x68 -1 x82 +1 x1522 >= -1 ;
+1 x69 -1 x1523 >= 0 ;
+1 x83 -1 x1523 >= 0 ;
-1 x69 -1 x83 +1 x1523 >= -1 ;
+1 x69 -1 x1524 >= 0 ;
+1 x84 -1 x1524 >= 0 ;
-1 x69 -1 x84 +1 x1524 >= -1 ;
+1 x70 -1 x1525 >= 0 ;
+1 x83 -1 x1525 >= 0 ;
-1 x70 -1 x83 +1 x1525 >= -1 ;
+1 x70 -1 x1526 >= 0 ;
+1 x84 -1 x1526 >= 0 ;
-1 x70 -1 x84 +1 x1526 >= -1 ;
+1 x71 -1 x1527 >= 0 ;
+1 x43 -1 x1527 >= 0 ;
-1 x71 -1 x43 +1 x1527 >= -1 ;
+1 x71 -1 x1528 >= 0 ;
+1 x44 -1 x1528 >= 0 ;
-1 x71 -1 x44 +1 x1528 >= -1 ;
+1 x72 -1 x1529 >= 0 ;
+1 x43 -1 x1529 >= 0 ;
-1 x72 -1 x43 +1 x1529 >= -1 ;
+1 x72 -1 x1530 >= 0 ;
+1 x44 -1 x1530 >= 0 ;
-1 x72 -1 x44 +1 x1530 >= -1 ;
+1 x73 -1 x1531 >= 0 ;
+1 x45 -1 x1531 >= 0 ;
-1 x73 -1 x45 +1 x1531 >= -1 ;
+1 x73 -1 x1532 >= 0 ;
+1 x46 -1 x1532 >= 0 ;
-1 x73 -1 x46 +1 x1532 >= -1 ;
+1 x74 -1 x1533 >= 0 ;
+1 x45 -1 x1533 >= 0 ;
-1 x74 -1 x45 +1 x1533 >= -1 ;
+1 x74 -1 x1534 >= 0 ;
+1 x46 -1 x1534 >= 0 ;
-1 x74 -1 x46 +1 x1534 >= -1 ;
+1 x75 -1 x1535 >= 0 ;
+1 x47 -1 x1535 >= 0 ;
-1 x75 -1 x47 +1 x1535 >= -1 ;
+1 x75 -1 x1536 >= 0 ;
+1 x48 -1 x1536 >= 0 ;
-1 x75 -1 x48 +1 x1536 >= -1 ;
+1 x76 -1 x1537 >= 0 ;
+1 x47 -1 x1537 >= 0 ;
-1 x76 -1 x47 +1 x1537 >= -1 ;
+1 x76 -1 x1538 >= 0 ;
+1 x48 -1 x1538 >= 0 ;
-1 x76 -1 x48 +1 x1538 >= -1 ;
+1 x77 -1 x1539 >= 0 ;
+1 x49 -1 x1539 >= 0 ;
-1 x77 -1 x49 +1 x1539 >= -1 ;
+1 x77 -1 x1540 >= 0 ;
+1 x50 -1 x1540 >= 0 ;
-1 x77 -1 x50 +1 x1540 >= -1 ;
+1 x78 -1 x1541 >= 0 ;
+1 x49 -1 x1541 >= 0 ;
-1 x78 -1 x49 +1 x1541 >= -1 ;
+1 x78 -1 x1542 >= 0 ;
+1 x50 -1 x1542 >= 0 ;
-1 x78 -1 x50 +1 x1542 >= -1 ;
+1 x79 -1 x1543 >= 0 ;
+1 x51 -1 x1543 >= 0 ;
-1 x79 -1 x51 +1 x1543 >= -1 ;
+1 x79 -1 x1544 >= 0 ;
+1 x52 -1 x1544 >= 0 ;
-1 x79 -1 x52 +1 x1544 >= -1 ;
+1 x80 -1 x1545 >= 0 ;
+1 x51 -1 x1545 >= 0 ;
-1 x80 -1 x51 +1 x1545 >= -1 ;
+1 x80 -1 x1546 >= 0 ;
+1 x52 -1 x1546 >= 0 ;
-1 x80 -1 x52 +1 x1546 >= -1 ;
+1 x81 -1 x1547 >= 0 ;
+1 x53 -1 x1547 >= 0 ;
-1 x81 -1 x53 +1 x1547 >= -1 ;
+1 x81 -1 x1548 >= 0 ;
+1 x54 -1 x1548 >= 0 ;
-1 x81 -1 x54 +1 x1548 >= -1 ;
+1 x82 -1 x1549 >= 0 ;
+1 x53 -1 x1549 >= 0 ;
-1 x82 -1 x53 +1 x1549 >= -1 ;
+1 x82 -1 x1550 >= 0 ;
+1 x54 -1 x1550 >= 0 ;
-1 x82 -1 x54 +1 x1550 >= -1 ;
+1 x83 -1 x1551 >= 0 ;
+1 x55 -1 x1551 >= 0 ;
-1 x83 -1 x55 +1 x1551 >= -1 ;
+1 x83 -1 x1552 >= 0 ;
+1 x56 -1 x1552 >= 0 ;
-1 x83 -1 x56 +1 x1552 >= -1 ;
+1 x84 -1 x1553 >= 0 ;
+1 x55 -1 x1553 >= 0 ;
-1 x84 -1 x55 +1 x1553 >= -1 ;
+1 x84 -1 x1554 >= 0 ;
+1 x56 -1 x1554 >= 0 ;
-1 x84 -1 x56 +1 x1554 >= -1 ;
+1 x43 -1 x1555 >= 0 ;
+1 x59 -1 x1555 >= 0 ;
-1 x43 -1 x59 +1 x1555 >= -1 ;
+1 x43 -1 x1556 >= 0 ;
+1 x60 -1 x1556 >= 0 ;
-1 x43 -1 x60 +1 x1556 >= -1 ;
+1 x44 -1 x1557 >= 0 ;
+1 x59 -1 x1557 >= 0 ;
-1 x44 -1 x59 +1 x1557 >= -1 ;
+1 x44 -1 x1558 >= 0 ;
+1 x60 -1 x1558 >= 0 ;
-1 x44 -1 x60 +1 x1558 >= -1 ;
+1 x45 -1 x1559 >= 0 ;
+1 x61 -1 x1559 >= 0 ;
-1 x45 -1 x61 +1 x1559 >= -1 ;
+1 x45 -1 x1560 >= 0 ;
+1 x62 -1 x1560 >= 0 ;
-1 x45 -1 x62 +1 x1560 >= -1 ;
+1 x46 -1 x1561 >= 0 ;
+1 x61 -1 x1561 >= 0 ;
-1 x46 -1 x61 +1 x1561 >= -1 ;
+1 x46 -1 x1562 >= 0 ;
+1 x62 -1 x1562 >= 0 ;
-1 x46 -1 x62 +1 x1562 >= -1 ;
+1 x47 -1 x1563 >= 0 ;
+1 x63 -1 x1563 >= 0 ;
-1 x47 -1 x63 +1 x1563 >= -1 ;
+1 x47 -1 x1564 >= 0 ;
+1 x64 -1 x1564 >= 0 ;
-1 x47 -1 x64 +1 x1564 >= -1 ;
+1 x48 -1 x1565 >= 0 ;
+1 x63 -1 x1565 >= 0 ;
-1 x48 -1 x63 +1 x1565 >= -1 ;
+1 x48 -1 x1566 >= 0 ;
+1 x64 -1 x1566 >= 0 ;
-1 x48 -1 x64 +1 x1566 >= -1 ;
+1 x49 -1 x1567 >= 0 ;
+1 x65 -1 x1567 >= 0 ;
-1 x49 -1 x65 +1 x1567 >= -1 ;
+1 x49 -1 x1568 >= 0 ;
+1 x66 -1 x1568 >= 0 ;
-1 x49 -1 x66 +1 x1568 >= -1 ;
+1 x50 -1 x1569 >= 0 ;
+1 x65 -1 x1569 >= 0 ;
-1 x50 -1 x65 +1 x1569 >= -1 ;
+1 x50 -1 x1570 >= 0 ;
+1 x66 -1 x1570 >= 0 ;
-1 x50 -1 x66 +1 x1570 >= -1 ;
+1 x51 -1 x1571 >= 0 ;
+1 x67 -1 x1571 >= 0 ;
-1 x51 -1 x67 +1 x1571 >= -1 ;
+1 x51 -1 x1572 >= 0 ;
+1 x68 -1 x1572 >= 0 ;
-1 x51 -1 x68 +1 x1572 >= -1 ;
+1 x52 -1 x1573 >= 0 ;
+1 x67 -1 x1573 >= 0 ;
-1 x52 -1 x67 +1 x1573 >= -1 ;
+1 x52 -1 x1574 >= 0 ;
+1 x68 -1 x1574 >= 0 ;
-1 x52 -1 x68 +1 x1574 >= -1 ;
+1 x53 -1 x1575 >= 0 ;
+1 x69 -1 x1575 >= 0 ;
-1 x53 -1 x69 +1 x1575 >= -1 ;
+1 x53 -1 x1576 >= 0 ;
+1 x70 -1 x1576 >= 0 ;
-1 x53 -1 x70 +1 x1576 >= -1 ;
+1 x54 -1 x1577 >= 0 ;
+1 x69 -1 x1577 >= 0 ;
-1 x54 -1 x69 +1 x1577 >= -1 ;
+1 x54 -1 x1578 >= 0 ;
+1 x70 -1 x1578 >= 0 ;
-1 x54 -1 x70 +1 x1578 >= -1 ;
+1 x55 -1 x1579 >= 0 ;
+1 x71 -1 x1579 >= 0 ;
-1 x55 -1 x71 +1 x1579 >= -1 ;
+1 x55 -1 x1580 >= 0 ;
+1 x72 -1 x1580 >= 0 ;
-1 x55 -1 x72 +1 x1580 >= -1 ;
+1 x56 -1 x1581 >= 0 ;
+1 x71 -1 x1581 >= 0 ;
-1 x56 -1 x71 +1 x1581 >= -1 ;
+1 x56 -1 x1582 >= 0 ;
+1 x72 -1 x1582 >= 0 ;
-1 x56 -1 x72 +1 x1582 >= -1 ;
+1 x57 -1 x1583 >= 0 ;
+1 x73 -1 x1583 >= 0 ;
-1 x57 -1 x73 +1 x1583 >= -1 ;
+1 x57 -1 x1584 >= 0 ;
+1 x74 -1 x1584 >= 0 ;
-1 x57 -1 x74 +1 x1584 >= -1 ;
+1 x58 -1 x1585 >= 0 ;
+1 x73 -1 x1585 >= 0 ;
-1 x58 -1 x73 +1 x1585 >= -1 ;
+1 x58 -1 x1586 >= 0 ;
+1 x74 -1 x1586 >= 0 ;
-1 x58 -1 x74 +1 x1586 >= -1 ;
+1 x59 -1 x1587 >= 0 ;
+1 x75 -1 x1587 >= 0 ;
-1 x59 -1 x75 +1 x1587 >= -1 ;
+1 x59 -1 x1588 >= 0 ;
+1 x76 -1 x1588 >= 0 ;
-1 x59 -1 x76 +1 x1588 >= -1 ;
+1 x60 -1 x1589 >= 0 ;
+1 x75 -1 x1589 >= 0 ;
-1 x60 -1 x75 +1 x1589 >= -1 ;
+1 x60 -1 x1590 >= 0 ;
+1 x76 -1 x1590 >= 0 ;
-1 x60 -1 x76 +1 x1590 >= -1 ;
+1 x61 -1 x1591 >= 0 ;
+1 x77 -1 x1591 >= 0 ;
-1 x61 -1 x77 +1 x1591 >= -1 ;
+1 x61 -1 x1592 >= 0 ;
+1 x78 -1 x1592 >= 0 ;
-1 x61 -1 x78 +1 x1592 >= -1 ;
+1 x62 -1 x1593 >= 0 ;
+1 x77 -1 x1593 >= 0 ;
-1 x62 -1 x77 +1 x1593 >= -1 ;
+1 x62 -1 x1594 >= 0 ;
+1 x78 -1 x1594 >= 0 ;
-1 x62 -1 x78 +1 x1594 >= -1 ;
+1 x63 -1 x1595 >= 0 ;
+1 x79 -1 x1595 >= 0 ;
-1 x63 -1 x79 +1 x1595 >= -1 ;
+1 x63 -1 x1596 >= 0 ;
+1 x80 -1 x1596 >= 0 ;
-1 x63 -1 x80 +1 x1596 >= -1 ;
+1 x64 -1 x1597 >= 0 ;
+1 x79 -1 x1597 >= 0 ;
-1 x64 -1 x79 +1 x1597 >= -1 ;
+1 x64 -1 x1598 >= 0 ;
+1 x80 -1 x1598 >= 0 ;
-1 x64 -1 x80 +1 x1598 >= -1 ;
+1 x65 -1 x1599 >= 0 ;
+1 x81 -1 x1599 >= 0 ;
-1 x65 -1 x81 +1 x1599 >= -1 ;
+1 x65 -1 x1600 >= 0 ;
+1 x82 -1 x1600 >= 0 ;
-1 x65 -1 x82 +1 x1600 >= -1 ;
+1 x66 -1 x1601 >= 0 ;
+1 x81 -1 x1601 >= 0 ;
-1 x66 -1 x81 +1 x1601 >= -1 ;
+1 x66 -1 x1602 >= 0 ;
+1 x82 -1 x1602 >= 0 ;
-1 x66 -1 x82 +1 x1602 >= -1 ;
+1 x67 -1 x1603 >= 0 ;
+1 x83 -1 x1603 >= 0 ;
-1 x67 -1 x83 +1 x1603 >= -1 ;
+1 x67 -1 x1604 >= 0 ;
+1 x84 -1 x1604 >= 0 ;
-1 x67 -1 x84 +1 x1604 >= -1 ;
+1 x68 -1 x1605 >= 0 ;
+1 x83 -1 x1605 >= 0 ;
-1 x68 -1 x83 +1 x1605 >= -1 ;
+1 x68 -1 x1606 >= 0 ;
+1 x84 -1 x1606 >= 0 ;
-1 x68 -1 x84 +1 x1606 >= -1 ;
+1 x69 -1 x1607 >= 0 ;
+1 x43 -1 x1607 >= 0 ;
-1 x69 -1 x43 +1 x1607 >= -1 ;
+1 x69 -1 x1608 >= 0 ;
+1 x44 -1 x1608 >= 0 ;
-1 x69 -1 x44 +1 x1608 >= -1 ;
+1 x70 -1 x1609 >= 0 ;
+1 x43 -1 x1609 >= 0 ;
-1 x70 -1 x43 +1 x1609 >= -1 ;
+1 x70 -1 x1610 >= 0 ;
+1 x44 -1 x1610 >= 0 ;
-1 x70 -1 x44 +1 x1610 >= -1 ;
+1 x71 -1 x1611 >= 0 ;
+1 x45 -1 x1611 >= 0 ;
-1 x71 -1 x45 +1 x1611 >= -1 ;
+1 x71 -1 x1612 >= 0 ;
+1 x46 -1 x1612 >= 0 ;
-1 x71 -1 x46 +1 x1612 >= -1 ;
+1 x72 -1 x1613 >= 0 ;
+1 x45 -1 x1613 >= 0 ;
-1 x72 -1 x45 +1 x1613 >= -1 ;
+1 x72 -1 x1614 >= 0 ;
+1 x46 -1 x1614 >= 0 ;
-1 x72 -1 x46 +1 x1614 >= -1 ;
+1 x73 -1 x1615 >= 0 ;
+1 x47 -1 x1615 >= 0 ;
-1 x73 -1 x47 +1 x1615 >= -1 ;
+1 x73 -1 x1616 >= 0 ;
+1 x48 -1 x1616 >= 0 ;
-1 x73 -1 x48 +1 x1616 >= -1 ;
+1 x74 -1 x1617 >= 0 ;
+1 x47 -1 x1617 >= 0 ;
-1 x74 -1 x47 +1 x1617 >= -1 ;
+1 x74 -1 x1618 >= 0 ;
+1 x48 -1 x1618 >= 0 ;
-1 x74 -1 x48 +1 x1618 >= -1 ;
+1 x75 -1 x1619 >= 0 ;
+1 x49 -1 x1619 >= 0 ;
-1 x75 -1 x49 +1 x1619 >= -1 ;
+1 x75 -1 x1620 >= 0 ;
+1 x50 -1 x1620 >= 0 ;
-1 x75 -1 x50 +1 x1620 >= -1 ;
+1 x76 -1 x1621 >= 0 ;
+1 x49 -1 x1621 >= 0 ;
-1 x76 -1 x49 +1 x1621 >= -1 ;
+1 x76 -1 x1622 >= 0 ;
+1 x50 -1 x1622 >= 0 ;
-1 x76 -1 x50 +1 x1622 >= -1 ;
+1 x77 -1 x1623 >= 0 ;
+1 x51 -1 x1623 >= 0 ;
-1 x77 -1 x51 +1 x1623 >= -1 ;
+1 x77 -1 x1624 >= 0 ;
+1 x52 -1 x1624 >= 0 ;
-1 x77 -1 x52 +1 x1624 >= -1 ;
+1 x78 -1 x1625 >= 0 ;
+1 x51 -1 x1625 >= 0 ;
-1 x78 -1 x51 +1 x1625 >= -1 ;
+1 x78 -1 x1626 >= 0 ;
+1 x52 -1 x1626 >= 0 ;
-1 x78 -1 x52 +1 x1626 >= -1 ;
+1 x79 -1 x1627 >= 0 ;
+1 x53 -1 x1627 >= 0 ;
-1 x79 -1 x53 +1 x1627 >= -1 ;
+1 x79 -1 x1628 >= 0 ;
+1 x54 -1 x1628 >= 0 ;
-1 x79 -1 x54 +1 x1628 >= -1 ;
+1 x80 -1 x1629 >= 0 ;
+1 x53 -1 x1629 >= 0 ;
-1 x80 -1 x53 +1 x1629 >= -1 ;
+1 x80 -1 x1630 >= 0 ;
+1 x54 -1 x1630 >= 0 ;
-1 x80 -1 x54 +1 x1630 >= -1 ;
+1 x81 -1 x1631 >= 0 ;
+1 x55 -1 x1631 >= 0 ;
-1 x81 -1 x55 +1 x1631 >= -1 ;
+1 x81 -1 x1632 >= 0 ;
+1 x56 -1 x1632 >= 0 ;
-1 x81 -1 x56 +1 x1632 >= -1 ;
+1 x82 -1 x1633 >= 0 ;
+1 x55 -1 x1633 >= 0 ;
-1 x82 -1 x55 +1 x1633 >= -1 ;
+1 x82 -1 x1634 >= 0 ;
+1 x56 -1 x1634 >= 0 ;
-1 x82 -1 x56 +1 x1634 >= -1 ;
+1 x83 -1 x1635 >= 0 ;
+1 x57 -1 x1635 >= 0 ;
-1 x83 -1 x57 +1 x1635 >= -1 ;
+1 x83 -1 x1636 >= 0 ;
+1 x58 -1 x1636 >= 0 ;
-1 x83 -1 x58 +1 x1636 >= -1 ;
+1 x84 -1 x1637 >= 0 ;
+1 x57 -1 x1637 >= 0 ;
-1 x84 -1 x57 +1 x1637 >= -1 ;
+1 x84 -1 x1638 >= 0 ;
+1 x58 -1 x1638 >= 0 ;
-1 x84 -1 x58 +1 x1638 >= -1 ;
+1 x43 -1 x1639 >= 0 ;
+1 x61 -1 x1639 >= 0 ;
-1 x43 -1 x61 +1 x1639 >= -1 ;
+1 x43 -1 x1640 >= 0 ;
+1 x62 -1 x1640 >= 0 ;
-1 x43 -1 x62 +1 x1640 >= -1 ;
+1 x44 -1 x1641 >= 0 ;
+1 x61 -1 x1641 >= 0 ;
-1 x44 -1 x61 +1 x1641 >= -1 ;
+1 x44 -1 x1642 >= 0 ;
+1 x62 -1 x1642 >= 0 ;
-1 x44 -1 x62 +1 x1642 >= -1 ;
+1 x45 -1 x1643 >= 0 ;
+1 x63 -1 x1643 >= 0 ;
-1 x45 -1 x63 +1 x1643 >= -1 ;
+1 x45 -1 x1644 >= 0 ;
+1 x64 -1 x1644 >= 0 ;
-1 x45 -1 x64 +1 x1644 >= -1 ;
+1 x46 -1 x1645 >= 0 ;
+1 x63 -1 x1645 >= 0 ;
-1 x46 -1 x63 +1 x1645 >= -1 ;
+1 x46 -1 x1646 >= 0 ;
+1 x64 -1 x1646 >= 0 ;
-1 x46 -1 x64 +1 x1646 >= -1 ;
+1 x47 -1 x1647 >= 0 ;
+1 x65 -1 x1647 >= 0 ;
-1 x47 -1 x65 +1 x1647 >= -1 ;
+1 x47 -1 x1648 >= 0 ;
+1 x66 -1 x1648 >= 0 ;
-1 x47 -1 x66 +1 x1648 >= -1 ;
+1 x48 -1 x1649 >= 0 ;
+1 x65 -1 x1649 >= 0 ;
-1 x48 -1 x65 +1 x1649 >= -1 ;
+1 x48 -1 x1650 >= 0 ;
+1 x66 -1 x1650 >= 0 ;
-1 x48 -1 x66 +1 x1650 >= -1 ;
+1 x49 -1 x1651 >= 0 ;
+1 x67 -1 x1651 >= 0 ;
-1 x49 -1 x67 +1 x1651 >= -1 ;
+1 x49 -1 x1652 >= 0 ;
+1 x68 -1 x1652 >= 0 ;
-1 x49 -1 x68 +1 x1652 >= -1 ;
+1 x50 -1 x1653 >= 0 ;
+1 x67 -1 x1653 >= 0 ;
-1 x50 -1 x67 +1 x1653 >= -1 ;
+1 x50 -1 x1654 >= 0 ;
+1 x68 -1 x1654 >= 0 ;
-1 x50 -1 x68 +1 x1654 >= -1 ;
+1 x51 -1 x1655 >= 0 ;
+1 x69 -1 x1655 >= 0 ;
-1 x51 -1 x69 +1 x1655 >= -1 ;
+1 x51 -1 x1656 >= 0 ;
+1 x70 -1 x1656 >= 0 ;
-1 x51 -1 x70 +1 x1656 >= -1 ;
+1 x52 -1 x1657 >= 0 ;
+1 x69 -1 x1657 >= 0 ;
-1 x52 -1 x69 +1 x1657 >= -1 ;
+1 x52 -1 x1658 >= 0 ;
+1 x70 -1 x1658 >= 0 ;
-1 x52 -1 x70 +1 x1658 >= -1 ;
+1 x53 -1 x1659 >= 0 ;
+1 x71 -1 x1659 >= 0 ;
-1 x53 -1 x71 +1 x1659 >= -1 ;
+1 x53 -1 x1660 >= 0 ;
+1 x72 -1 x1660 >= 0 ;
-1 x53 -1 x72 +1 x1660 >= -1 ;
+1 x54 -1 x1661 >= 0 ;
+1 x71 -1 x1661 >= 0 ;
-1 x54 -1 x71 +1 x1661 >= -1 ;
+1 x54 -1 x1662 >= 0 ;
+1 x72 -1 x1662 >= 0 ;
-1 x54 -1 x72 +1 x1662 >= -1 ;
+1 x55 -1 x1663 >= 0 ;
+1 x73 -1 x1663 >= 0 ;
-1 x55 -1 x73 +1 x1663 >= -1 ;
+1 x55 -1 x1664 >= 0 ;
+1 x74 -1 x1664 >= 0 ;
-1 x55 -1 x74 +1 x1664 >= -1 ;
+1 x56 -1 x1665 >= 0 ;
+1 x73 -1 x1665 >= 0 ;
-1 x56 -1 x73 +1 x1665 >= -1 ;
+1 x56 -1 x1666 >= 0 ;
+1 x74 -1 x1666 >= 0 ;
-1 x56 -1 x74 +1 x1666 >= -1 ;
+1 x57 -1 x1667 >= 0 ;
+1 x75 -1 x1667 >= 0 ;
-1 x57 -1 x75 +1 x1667 >= -1 ;
+1 x57 -1 x1668 >= 0 ;
+1 x76 -1 x1668 >= 0 ;
-1 x57 -1 x76 +1 x1668 >= -1 ;
+1 x58 -1 x1669 >= 0 ;
+1 x75 -1 x1669 >= 0 ;
-1 x58 -1 x75 +1 x1669 >= -1 ;
+1 x58 -1 x1670 >= 0 ;
+1 x76 -1 x1670 >= 0 ;
-1 x58 -1 x76 +1 x1670 >= -1 ;
+1 x59 -1 x1671 >= 0 ;
+1 x77 -1 x1671 >= 0 ;
-1 x59 -1 x77 +1 x1671 >= -1 ;
+1 x59 -1 x1672 >= 0 ;
+1 x78 -1 x1672 >= 0 ;
-1 x59 -1 x78 +1 x1672 >= -1 ;
+1 x60 -1 x1673 >= 0 ;
+1 x77 -1 x1673 >= 0 ;
-1 x60 -1 x77 +1 x1673 >= -1 ;
+1 x60 -1 x1674 >= 0 ;
+1 x78 -1 x1674 >= 0 ;
-1 x60 -1 x78 +1 x1674 >= -1 ;
+1 x61 -1 x1675 >= 0 ;
+1 x79 -1 x1675 >= 0 ;
-1 x61 -1 x79 +1 x1675 >= -1 ;
+1 x61 -1 x1676 >= 0 ;
+1 x80 -1 x1676 >= 0 ;
-1 x61 -1 x80 +1 x1676 >= -1 ;
+1 x62 -1 x1677 >= 0 ;
+1 x79 -1 x1677 >= 0 ;
-1 x62 -1 x79 +1 x1677 >= -1 ;
+1 x62 -1 x1678 >= 0 ;
+1 x80 -1 x1678 >= 0 ;
-1 x62 -1 x80 +1 x1678 >= -1 ;
+1 x63 -1 x1679 >= 0 ;
+1 x81 -1 x1679 >= 0 ;
-1 x63 -1 x81 +1 x1679 >= -1 ;
+1 x63 -1 x1680 >= 0 ;
+1 x82 -1 x1680 >= 0 ;
-1 x63 -1 x82 +1 x1680 >= -1 ;
+1 x64 -1 x1681 >= 0 ;
+1 x81 -1 x1681 >= 0 ;
-1 x64 -1 x81 +1 x1681 >= -1 ;
+1 x64 -1 x1682 >= 0 ;
+1 x82 -1 x1682 >= 0 ;
-1 x64 -1 x82 +1 x1682 >= -1 ;
+1 x65 -1 x1683 >= 0 ;
+1 x83 -1 x1683 >= 0 ;
-1 x65 -1 x83 +1 x1683 >= -1 ;
+1 x65 -1 x1684 >= 0 ;
+1 x84 -1 x1684 >= 0 ;
-1 x65 -1 x84 +1 x1684 >= -1 ;
+1 x66 -1 x1685 >= 0 ;
+1 x83 -1 x1685 >= 0 ;
-1 x66 -1 x83 +1 x1685 >= -1 ;
+1 x66 -1 x1686 >= 0 ;
+1 x84 -1 x1686 >= 0 ;
-1 x66 -1 x84 +1 x1686 >= -1 ;
+1 x67 -1 x1687 >= 0 ;
+1 x43 -1 x1687 >= 0 ;
-1 x67 -1 x43 +1 x1687 >= -1 ;
+1 x67 -1 x1688 >= 0 ;
+1 x44 -1 x1688 >= 0 ;
-1 x67 -1 x44 +1 x1688 >= -1 ;
+1 x68 -1 x1689 >= 0 ;
+1 x43 -1 x1689 >= 0 ;
-1 x68 -1 x43 +1 x1689 >= -1 ;
+1 x68 -1 x1690 >= 0 ;
+1 x44 -1 x1690 >= 0 ;
-1 x68 -1 x44 +1 x1690 >= -1 ;
+1 x69 -1 x1691 >= 0 ;
+1 x45 -1 x1691 >= 0 ;
-1 x69 -1 x45 +1 x1691 >= -1 ;
+1 x69 -1 x1692 >= 0 ;
+1 x46 -1 x1692 >= 0 ;
-1 x69 -1 x46 +1 x1692 >= -1 ;
+1 x70 -1 x1693 >= 0 ;
+1 x45 -1 x1693 >= 0 ;
-1 x70 -1 x45 +1 x1693 >= -1 ;
+1 x70 -1 x1694 >= 0 ;
+1 x46 -1 x1694 >= 0 ;
-1 x70 -1 x46 +1 x1694 >= -1 ;
+1 x71 -1 x1695 >= 0 ;
+1 x47 -1 x1695 >= 0 ;
-1 x71 -1 x47 +1 x1695 >= -1 ;
+1 x71 -1 x1696 >= 0 ;
+1 x48 -1 x1696 >= 0 ;
-1 x71 -1 x48 +1 x1696 >= -1 ;
+1 x72 -1 x1697 >= 0 ;
+1 x47 -1 x1697 >= 0 ;
-1 x72 -1 x47 +1 x1697 >= -1 ;
+1 x72 -1 x1698 >= 0 ;
+1 x48 -1 x1698 >= 0 ;
-1 x72 -1 x48 +1 x1698 >= -1 ;
+1 x73 -1 x1699 >= 0 ;
+1 x49 -1 x1699 >= 0 ;
-1 x73 -1 x49 +1 x1699 >= -1 ;
+1 x73 -1 x1700 >= 0 ;
+1 x50 -1 x1700 >= 0 ;
-1 x73 -1 x50 +1 x1700 >= -1 ;
+1 x74 -1 x1701 >= 0 ;
+1 x49 -1 x1701 >= 0 ;
-1 x74 -1 x49 +1 x1701 >= -1 ;
+1 x74 -1 x1702 >= 0 ;
+1 x50 -1 x1702 >= 0 ;
-1 x74 -1 x50 +1 x1702 >= -1 ;
+1 x75 -1 x1703 >= 0 ;
+1 x51 -1 x1703 >= 0 ;
-1 x75 -1 x51 +1 x1703 >= -1 ;
+1 x75 -1 x1704 >= 0 ;
+1 x52 -1 x1704 >= 0 ;
-1 x75 -1 x52 +1 x1704 >= -1 ;
+1 x76 -1 x1705 >= 0 ;
+1 x51 -1 x1705 >= 0 ;
-1 x76 -1 x51 +1 x1705 >= -1 ;
+1 x76 -1 x1706 >= 0 ;
+1 x52 -1 x1706 >= 0 ;
-1 x76 -1 x52 +1 x1706 >= -1 ;
+1 x77 -1 x1707 >= 0 ;
+1 x53 -1 x1707 >= 0 ;
-1 x77 -1 x53 +1 x1707 >= -1 ;
+1 x77 -1 x1708 >= 0 ;
+1 x54 -1 x1708 >= 0 ;
-1 x77 -1 x54 +1 x1708 >= -1 ;
+1 x78 -1 x1709 >= 0 ;
+1 x53 -1 x1709 >= 0 ;
-1 x78 -1 x53 +1 x1709 >= -1 ;
+1 x78 -1 x1710 >= 0 ;
+1 x54 -1 x1710 >= 0 ;
-1 x78 -1 x54 +1 x1710 >= -1 ;
+1 x79 -1 x1711 >= 0 ;
+1 x55 -1 x1711 >= 0 ;
-1 x79 -1 x55 +1 x1711 >= -1 ;
+1 x79 -1 x1712 >= 0 ;
+1 x56 -1 x1712 >= 0 ;
-1 x79 -1 x56 +1 x1712 >= -1 ;
+1 x80 -1 x1713 >= 0 ;
+1 x55 -1 x1713 >= 0 ;
-1 x80 -1 x55 +1 x1713 >= -1 ;
+1 x80 -1 x1714 >= 0 ;
+1 x56 -1 x1714 >= 0 ;
-1 x80 -1 x56 +1 x1714 >= -1 ;
+1 x81 -1 x1715 >= 0 ;
+1 x57 -1 x1715 >= 0 ;
-1 x81 -1 x57 +1 x1715 >= -1 ;
+1 x81 -1 x1716 >= 0 ;
+1 x58 -1 x1716 >= 0 ;
-1 x81 -1 x58 +1 x1716 >= -1 ;
+1 x82 -1 x1717 >= 0 ;
+1 x57 -1 x1717 >= 0 ;
-1 x82 -1 x57 +1 x1717 >= -1 ;
+1 x82 -1 x1718 >= 0 ;
+1 x58 -1 x1718 >= 0 ;
-1 x82 -1 x58 +1 x1718 >= -1 ;
+1 x83 -1 x1719 >= 0 ;
+1 x59 -1 x1719 >= 0 ;
-1 x83 -1 x59 +1 x1719 >= -1 ;
+1 x83 -1 x1720 >= 0 ;
+1 x60 -1 x1720 >= 0 ;
-1 x83 -1 x60 +1 x1720 >= -1 ;
+1 x84 -1 x1721 >= 0 ;
+1 x59 -1 x1721 >= 0 ;
-1 x84 -1 x59 +1 x1721 >= -1 ;
+1 x84 -1 x1722 >= 0 ;
+1 x60 -1 x1722 >= 0 ;
-1 x84 -1 x60 +1 x1722 >= -1 ;
+1 x43 -1 x1723 >= 0 ;
+1 x63 -1 x1723 >= 0 ;
-1 x43 -1 x63 +1 x1723 >= -1 ;
+1 x43 -1 x1724 >= 0 ;
+1 x64 -1 x1724 >= 0 ;
-1 x43 -1 x64 +1 x1724 >= -1 ;
+1 x44 -1 x1725 >= 0 ;
+1 x63 -1 x1725 >= 0 ;
-1 x44 -1 x63 +1 x1725 >= -1 ;
+1 x44 -1 x1726 >= 0 ;
+1 x64 -1 x1726 >= 0 ;
-1 x44 -1 x64 +1 x1726 >= -1 ;
+1 x45 -1 x1727 >= 0 ;
+1 x65 -1 x1727 >= 0 ;
-1 x45 -1 x65 +1 x1727 >= -1 ;
+1 x45 -1 x1728 >= 0 ;
+1 x66 -1 x1728 >= 0 ;
-1 x45 -1 x66 +1 x1728 >= -1 ;
+1 x46 -1 x1729 >= 0 ;
+1 x65 -1 x1729 >= 0 ;
-1 x46 -1 x65 +1 x1729 >= -1 ;
+1 x46 -1 x1730 >= 0 ;
+1 x66 -1 x1730 >= 0 ;
-1 x46 -1 x66 +1 x1730 >= -1 ;
+1 x47 -1 x1731 >= 0 ;
+1 x67 -1 x1731 >= 0 ;
-1 x47 -1 x67 +1 x1731 >= -1 ;
+1 x47 -1 x1732 >= 0 ;
+1 x68 -1 x1732 >= 0 ;
-1 x47 -1 x68 +1 x1732 >= -1 ;
+1 x48 -1 x1733 >= 0 ;
+1 x67 -1 x1733 >= 0 ;
-1 x48 -1 x67 +1 x1733 >= -1 ;
+1 x48 -1 x1734 >= 0 ;
+1 x68 -1 x1734 >= 0 ;
-1 x48 -1 x68 +1 x1734 >= -1 ;
+1 x49 -1 x1735 >= 0 ;
+1 x69 -1 x1735 >= 0 ;
-1 x49 -1 x69 +1 x1735 >= -1 ;
+1 x49 -1 x1736 >= 0 ;
+1 x70 -1 x1736 >= 0 ;
-1 x49 -1 x70 +1 x1736 >= -1 ;
+1 x50 -1 x1737 >= 0 ;
+1 x69 -1 x1737 >= 0 ;
-1 x50 -1 x69 +1 x1737 >= -1 ;
+1 x50 -1 x1738 >= 0 ;
+1 x70 -1 x1738 >= 0 ;
-1 x50 -1 x70 +1 x1738 >= -1 ;
+1 x51 -1 x1739 >= 0 ;
+1 x71 -1 x1739 >= 0 ;
-1 x51 -1 x71 +1 x1739 >= -1 ;
+1 x51 -1 x1740 >= 0 ;
+1 x72 -1 x1740 >= 0 ;
-1 x51 -1 x72 +1 x1740 >= -1 ;
+1 x52 -1 x1741 >= 0 ;
+1 x71 -1 x1741 >= 0 ;
-1 x52 -1 x71 +1 x1741 >= -1 ;
+1 x52 -1 x1742 >= 0 ;
+1 x72 -1 x1742 >= 0 ;
-1 x52 -1 x72 +1 x1742 >= -1 ;
+1 x53 -1 x1743 >= 0 ;
+1 x73 -1 x1743 >= 0 ;
-1 x53 -1 x73 +1 x1743 >= -1 ;
+1 x53 -1 x1744 >= 0 ;
+1 x74 -1 x1744 >= 0 ;
-1 x53 -1 x74 +1 x1744 >= -1 ;
+1 x54 -1 x1745 >= 0 ;
+1 x73 -1 x1745 >= 0 ;
-1 x54 -1 x73 +1 x1745 >= -1 ;
+1 x54 -1 x1746 >= 0 ;
+1 x74 -1 x1746 >= 0 ;
-1 x54 -1 x74 +1 x1746 >= -1 ;
+1 x55 -1 x1747 >= 0 ;
+1 x75 -1 x1747 >= 0 ;
-1 x55 -1 x75 +1 x1747 >= -1 ;
+1 x55 -1 x1748 >= 0 ;
+1 x76 -1 x1748 >= 0 ;
-1 x55 -1 x76 +1 x1748 >= -1 ;
+1 x56 -1 x1749 >= 0 ;
+1 x75 -1 x1749 >= 0 ;
-1 x56 -1 x75 +1 x1749 >= -1 ;
+1 x56 -1 x1750 >= 0 ;
+1 x76 -1 x1750 >= 0 ;
-1 x56 -1 x76 +1 x1750 >= -1 ;
+1 x57 -1 x1751 >= 0 ;
+1 x77 -1 x1751 >= 0 ;
-1 x57 -1 x77 +1 x1751 >= -1 ;
+1 x57 -1 x1752 >= 0 ;
+1 x78 -1 x1752 >= 0 ;
-1 x57 -1 x78 +1 x1752 >= -1 ;
+1 x58 -1 x1753 >= 0 ;
+1 x77 -1 x1753 >= 0 ;
-1 x58 -1 x77 +1 x1753 >= -1 ;
+1 x58 -1 x1754 >= 0 ;
+1 x78 -1 x1754 >= 0 ;
-1 x58 -1 x78 +1 x1754 >= -1 ;
+1 x59 -1 x1755 >= 0 ;
+1 x79 -1 x1755 >= 0 ;
-1 x59 -1 x79 +1 x1755 >= -1 ;
+1 x59 -1 x1756 >= 0 ;
+1 x80 -1 x1756 >= 0 ;
-1 x59 -1 x80 +1 x1756 >= -1 ;
+1 x60 -1 x1757 >= 0 ;
+1 x79 -1 x1757 >= 0 ;
-1 x60 -1 x79 +1 x1757 >= -1 ;
+1 x60 -1 x1758 >= 0 ;
+1 x80 -1 x1758 >= 0 ;
-1 x60 -1 x80 +1 x1758 >= -1 ;
+1 x61 -1 x1759 >= 0 ;
+1 x81 -1 x1759 >= 0 ;
-1 x61 -1 x81 +1 x1759 >= -1 ;
+1 x61 -1 x1760 >= 0 ;
+1 x82 -1 x1760 >= 0 ;
-1 x61 -1 x82 +1 x1760 >= -1 ;
+1 x62 -1 x1761 >= 0 ;
+1 x81 -1 x1761 >= 0 ;
-1 x62 -1 x81 +1 x1761 >= -1 ;
+1 x62 -1 x1762 >= 0 ;
+1 x82 -1 x1762 >= 0 ;
-1 x62 -1 x82 +1 x1762 >= -1 ;
+1 x63 -1 x1763 >= 0 ;
+1 x83 -1 x1763 >= 0 ;
-1 x63 -1 x83 +1 x1763 >= -1 ;
+1 x63 -1 x1764 >= 0 ;
+1 x84 -1 x1764 >= 0 ;
-1 x63 -1 x84 +1 x1764 >= -1 ;
+1 x64 -1 x1765 >= 0 ;
+1 x83 -1 x1765 >= 0 ;
-1 x64 -1 x83 +1 x1765 >= -1 ;
+1 x64 -1 x1766 >= 0 ;
+1 x84 -1 x1766 >= 0 ;
-1 x64 -1 x84 +1 x1766 >= -1 ;
+1 x65 -1 x1767 >= 0 ;
+1 x43 -1 x1767 >= 0 ;
-1 x65 -1 x43 +1 x1767 >= -1 ;
+1 x65 -1 x1768 >= 0 ;
+1 x44 -1 x1768 >= 0 ;
-1 x65 -1 x44 +1 x1768 >= -1 ;
+1 x66 -1 x1769 >= 0 ;
+1 x43 -1 x1769 >= 0 ;
-1 x66 -1 x43 +1 x1769 >= -1 ;
+1 x66 -1 x1770 >= 0 ;
+1 x44 -1 x1770 >= 0 ;
-1 x66 -1 x44 +1 x1770 >= -1 ;
+1 x67 -1 x1771 >= 0 ;
+1 x45 -1 x1771 >= 0 ;
-1 x67 -1 x45 +1 x1771 >= -1 ;
+1 x67 -1 x1772 >= 0 ;
+1 x46 -1 x1772 >= 0 ;
-1 x67 -1 x46 +1 x1772 >= -1 ;
+1 x68 -1 x1773 >= 0 ;
+1 x45 -1 x1773 >= 0 ;
-1 x68 -1 x45 +1 x1773 >= -1 ;
+1 x68 -1 x1774 >= 0 ;
+1 x46 -1 x1774 >= 0 ;
-1 x68 -1 x46 +1 x1774 >= -1 ;
+1 x69 -1 x1775 >= 0 ;
+1 x47 -1 x1775 >= 0 ;
-1 x69 -1 x47 +1 x1775 >= -1 ;
+1 x69 -1 x1776 >= 0 ;
+1 x48 -1 x1776 >= 0 ;
-1 x69 -1 x48 +1 x1776 >= -1 ;
+1 x70 -1 x1777 >= 0 ;
+1 x47 -1 x1777 >= 0 ;
-1 x70 -1 x47 +1 x1777 >= -1 ;
+1 x70 -1 x1778 >= 0 ;
+1 x48 -1 x1778 >= 0 ;
-1 x70 -1 x48 +1 x1778 >= -1 ;
+1 x71 -1 x1779 >= 0 ;
+1 x49 -1 x1779 >= 0 ;
-1 x71 -1 x49 +1 x1779 >= -1 ;
+1 x71 -1 x1780 >= 0 ;
+1 x50 -1 x1780 >= 0 ;
-1 x71 -1 x50 +1 x1780 >= -1 ;
+1 x72 -1 x1781 >= 0 ;
+1 x49 -1 x1781 >= 0 ;
-1 x72 -1 x49 +1 x1781 >= -1 ;
+1 x72 -1 x1782 >= 0 ;
+1 x50 -1 x1782 >= 0 ;
-1 x72 -1 x50 +1 x1782 >= -1 ;
+1 x73 -1 x1783 >= 0 ;
+1 x51 -1 x1783 >= 0 ;
-1 x73 -1 x51 +1 x1783 >= -1 ;
+1 x73 -1 x1784 >= 0 ;
+1 x52 -1 x1784 >= 0 ;
-1 x73 -1 x52 +1 x1784 >= -1 ;
+1 x74 -1 x1785 >= 0 ;
+1 x51 -1 x1785 >= 0 ;
-1 x74 -1 x51 +1 x1785 >= -1 ;
+1 x74 -1 x1786 >= 0 ;
+1 x52 -1 x1786 >= 0 ;
-1 x74 -1 x52 +1 x1786 >= -1 ;
+1 x75 -1 x1787 >= 0 ;
+1 x53 -1 x1787 >= 0 ;
-1 x75 -1 x53 +1 x1787 >= -1 ;
+1 x75 -1 x1788 >= 0 ;
+1 x54 -1 x1788 >= 0 ;
-1 x75 -1 x54 +1 x1788 >= -1 ;
+1 x76 -1 x1789 >= 0 ;
+1 x53 -1 x1789 >= 0 ;
-1 x76 -1 x53 +1 x1789 >= -1 ;
+1 x76 -1 x1790 >= 0 ;
+1 x54 -1 x1790 >= 0 ;
-1 x76 -1 x54 +1 x1790 >= -1 ;
+1 x77 -1 x1791 >= 0 ;
+1 x55 -1 x1791 >= 0 ;
-1 x77 -1 x55 +1 x1791 >= -1 ;
+1 x77 -1 x1792 >= 0 ;
+1 x56 -1 x1792 >= 0 ;
-1 x77 -1 x56 +1 x1792 >= -1 ;
+1 x78 -1 x1793 >= 0 ;
+1 x55 -1 x1793 >= 0 ;
-1 x78 -1 x55 +1 x1793 >= -1 ;
+1 x78 -1 x1794 >= 0 ;
+1 x56 -1 x1794 >= 0 ;
-1 x78 -1 x56 +1 x1794 >= -1 ;
+1 x79 -1 x1795 >= 0 ;
+1 x57 -1 x1795 >= 0 ;
-1 x79 -1 x57 +1 x1795 >= -1 ;
+1 x79 -1 x1796 >= 0 ;
+1 x58 -1 x1796 >= 0 ;
-1 x79 -1 x58 +1 x1796 >= -1 ;
+1 x80 -1 x1797 >= 0 ;
+1 x57 -1 x1797 >= 0 ;
-1 x80 -1 x57 +1 x1797 >= -1 ;
+1 x80 -1 x1798 >= 0 ;
+1 x58 -1 x1798 >= 0 ;
-1 x80 -1 x58 +1 x1798 >= -1 ;
+1 x81 -1 x1799 >= 0 ;
+1 x59 -1 x1799 >= 0 ;
-1 x81 -1 x59 +1 x1799 >= -1 ;
+1 x81 -1 x1800 >= 0 ;
+1 x60 -1 x1800 >= 0 ;
-1 x81 -1 x60 +1 x1800 >= -1 ;
+1 x82 -1 x1801 >= 0 ;
+1 x59 -1 x1801 >= 0 ;
-1 x82 -1 x59 +1 x1801 >= -1 ;
+1 x82 -1 x1802 >= 0 ;
+1 x60 -1 x1802 >= 0 ;
-1 x82 -1 x60 +1 x1802 >= -1 ;
+1 x83 -1 x1803 >= 0 ;
+1 x61 -1 x1803 >= 0 ;
-1 x83 -1 x61 +1 x1803 >= -1 ;
+1 x83 -1 x1804 >= 0 ;
+1 x62 -1 x1804 >= 0 ;
-1 x83 -1 x62 +1 x1804 >= -1 ;
+1 x84 -1 x1805 >= 0 ;
+1 x61 -1 x1805 >= 0 ;
-1 x84 -1 x61 +1 x1805 >= -1 ;
+1 x84 -1 x1806 >= 0 ;
+1 x62 -1 x1806 >= 0 ;
-1 x84 -1 x62 +1 x1806 >= -1 ;
+1 x127 +2 x128 +2 x129 +4 x130 +1 x131 +2 x132 +2 x133 +4 x134 +1 x135 +2 x136 +2 x137 +4 x138 +1 x139 +2 x140 +2 x141 +4 x142 +1 x143 +2 x144 +2 x145 +4 x146 +1 x147 +2 x148 +2 x149 +4 x150 +1 x151 +2 x152 +2 x153 +4 x154 +1 x155 +2 x156 +2 x157 +4 x158 +1 x159 +2 x160 +2 x161 +4 x162 +1 x163 +2 x164 +2 x165 +4 x166 +1 x167 +2 x168 +2 x169 +4 x170 +1 x171 +2 x172 +2 x173 +4 x174 +1 x175 +2 x176 +2 x177 +4 x178 +1 x179 +2 x180 +2 x181 +4 x182 +1 x183 +2 x184 +2 x185 +4 x186 +1 x187 +2 x188 +2 x189 +4 x190 +1 x191 +2 x192 +2 x193 +4 x194 +1 x195 +2 x196 +2 x197 +4 x198 +1 x199 +2 x200 +2 x201 +4 x202 +1 x203 +2 x204 +2 x205 +4 x206 +1 x207 +2 x208 +2 x209 +4 x210 +1 x967 +2 x968 +2 x969 +4 x970 +1 x971 +2 x972 +2 x973 +4 x974 +1 x975 +2 x976 +2 x977 +4 x978 +1 x979 +2 x980 +2 x981 +4 x982 +1 x983 +2 x984 +2 x985 +4 x986 +1 x987 +2 x988 +2 x989 +4 x990 +1 x991 +2 x992 +2 x993 +4 x994 +1 x995 +2 x996 +2 x997 +4 x998 +1 x999 +2 x1000 +2 x1001 +4 x1002 +1 x1003 +2 x1004 +2 x1005 +4 x1006 +1 x1007 +2 x1008 +2 x1009 +4 x1010 +1 x1011 +2 x1012 +2 x1013 +4 x1014 +1 x1015 +2 x1016 +2 x1017 +4 x1018 +1 x1019 +2 x1020 +2 x1021 +4 x1022 +1 x1023 +2 x1024 +2 x1025 +4 x1026 +1 x1027 +2 x1028 +2 x1029 +4 x1030 +1 x1031 +2 x1032 +2 x1033 +4 x1034 +1 x1035 +2 x1036 +2 x1037 +4 x1038 +1 x1039 +2 x1040 +2 x1041 +4 x1042 +1 x1043 +2 x1044 +2 x1045 +4 x1046 +1 x1047 +2 x1048 +2 x1049 +4 x1050 = 90 ;
+1 x211 +2 x212 +2 x213 +4 x214 +1 x215 +2 x216 +2 x217 +4 x218 +1 x219 +2 x220 +2 x221 +4 x222 +1 x223 +2 x224 +2 x225 +4 x226 +1 x227 +2 x228 +2 x229 +4 x230 +1 x231 +2 x232 +2 x233 +4 x234 +1 x235 +2 x236 +2 x237 +4 x238 +1 x239 +2 x240 +2 x241 +4 x242 +1 x243 +2 x244 +2 x245 +4 x246 +1 x247 +2 x248 +2 x249 +4 x250 +1 x251 +2 x252 +2 x253 +4 x254 +1 x255 +2 x256 +2 x257 +4 x258 +1 x259 +2 x260 +2 x261 +4 x262 +1 x263 +2 x264 +2 x265 +4 x266 +1 x267 +2 x268 +2 x269 +4 x270 +1 x271 +2 x272 +2 x273 +4 x274 +1 x275 +2 x276 +2 x277 +4 x278 +1 x279 +2 x280 +2 x281 +4 x282 +1 x283 +2 x284 +2 x285 +4 x286 +1 x287 +2 x288 +2 x289 +4 x290 +1 x291 +2 x292 +2 x293 +4 x294 +1 x1051 +2 x1052 +2 x1053 +4 x1054 +1 x1055 +2 x1056 +2 x1057 +4 x1058 +1 x1059 +2 x1060 +2 x1061 +4 x1062 +1 x1063 +2 x1064 +2 x1065 +4 x1066 +1 x1067 +2 x1068 +2 x1069 +4 x1070 +1 x1071 +2 x1072 +2 x1073 +4 x1074 +1 x1075 +2 x1076 +2 x1077 +4 x1078 +1 x1079 +2 x1080 +2 x1081 +4 x1082 +1 x1083 +2 x1084 +2 x1085 +4 x1086 +1 x1087 +2 x1088 +2 x1089 +4 x1090 +1 x1091 +2 x1092 +2 x1093 +4 x1094 +1 x1095 +2 x1096 +2 x1097 +4 x1098 +1 x1099 +2 x1100 +2 x1101 +4 x1102 +1 x1103 +2 x1104 +2 x1105 +4 x1106 +1 x1107 +2 x1108 +2 x1109 +4 x1110 +1 x1111 +2 x1112 +2 x1113 +4 x1114 +1 x1115 +2 x1116 +2 x1117 +4 x1118 +1 x1119 +2 x1120 +2 x1121 +4 x1122 +1 x1123 +2 x1124 +2 x1125 +4 x1126 +1 x1127 +2 x1128 +2 x1129 +4 x1130 +1 x1131 +2 x1132 +2 x1133 +4 x1134 = 90 ;
+1 x295 +2 x296 +2 x297 +4 x298 +1 x299 +2 x300 +2 x301 +4 x302 +1 x303 +2 x304 +2 x305 +4 x306 +1 x307 +2 x308 +2 x309 +4 x310 +1 x311 +2 x312 +2 x313 +4 x314 +1 x315 +2 x316 +2 x317 +4 x318 +1 x319 +2 x320 +2 x321 +4 x322 +1 x323 +2 x324 +2 x325 +4 x326 +1 x327 +2 x328 +2 x329 +4 x330 +1 x331 +2 x332 +2 x333 +4 x334 +1 x335 +2 x336 +2 x337 +4 x338 +1 x339 +2 x340 +2 x341 +4 x342 +1 x343 +2 x344 +2 x345 +4 x346 +1 x347 +2 x348 +2 x349 +4 x350 +1 x351 +2 x352 +2 x353 +4 x354 +1 x355 +2 x356 +2 x357 +4 x358 +1 x359 +2 x360 +2 x361 +4 x362 +1 x363 +2 x364 +2 x365 +4 x366 +1 x367 +2 x368 +2 x369 +4 x370 +1 x371 +2 x372 +2 x373 +4 x374 +1 x375 +2 x376 +2 x377 +4 x378 +1 x1135 +2 x1136 +2 x1137 +4 x1138 +1 x1139 +2 x1140 +2 x1141 +4 x1142 +1 x1143 +2 x1144 +2 x1145 +4 x1146 +1 x1147 +2 x1148 +2 x1149 +4 x1150 +1 x1151 +2 x1152 +2 x1153 +4 x1154 +1 x1155 +2 x1156 +2 x1157 +4 x1158 +1 x1159 +2 x1160 +2 x1161 +4 x1162 +1 x1163 +2 x1164 +2 x1165 +4 x1166 +1 x1167 +2 x1168 +2 x1169 +4 x1170 +1 x1171 +2 x1172 +2 x1173 +4 x1174 +1 x1175 +2 x1176 +2 x1177 +4 x1178 +1 x1179 +2 x1180 +2 x1181 +4 x1182 +1 x1183 +2 x1184 +2 x1185 +4 x1186 +1 x1187 +2 x1188 +2 x1189 +4 x1190 +1 x1191 +2 x1192 +2 x1193 +4 x1194 +1 x1195 +2 x1196 +2 x1197 +4 x1198 +1 x1199 +2 x1200 +2 x1201 +4 x1202 +1 x1203 +2 x1204 +2 x1205 +4 x1206 +1 x1207 +2 x1208 +2 x1209 +4 x1210 +1 x1211 +2 x1212 +2 x1213 +4 x1214 +1 x1215 +2 x1216 +2 x1217 +4 x1218 = 90 ;
+1 x379 +2 x380 +2 x381 +4 x382 +1 x383 +2 x384 +2 x385 +4 x386 +1 x387 +2 x388 +2 x389 +4 x390 +1 x391 +2 x392 +2 x393 +4 x394 +1 x395 +2 x396 +2 x397 +4 x398 +1 x399 +2 x400 +2 x401 +4 x402 +1 x403 +2 x404 +2 x405 +4 x406 +1 x407 +2 x408 +2 x409 +4 x410 +1 x411 +2 x412 +2 x413 +4 x414 +1 x415 +2 x416 +2 x417 +4 x418 +1 x419 +2 x420 +2 x421 +4 x422 +1 x423 +2 x424 +2 x425 +4 x426 +1 x427 +2 x428 +2 x429 +4 x430 +1 x431 +2 x432 +2 x433 +4 x434 +1 x435 +2 x436 +2 x437 +4 x438 +1 x439 +2 x440 +2 x441 +4 x442 +1 x443 +2 x444 +2 x445 +4 x446 +1 x447 +2 x448 +2 x449 +4 x450 +1 x451 +2 x452 +2 x453 +4 x454 +1 x455 +2 x456 +2 x457 +4 x458 +1 x459 +2 x460 +2 x461 +4 x462 +1 x1219 +2 x1220 +2 x1221 +4 x1222 +1 x1223 +2 x1224 +2 x1225 +4 x1226 +1 x1227 +2 x1228 +2 x1229 +4 x1230 +1 x1231 +2 x1232 +2 x1233 +4 x1234 +1 x1235 +2 x1236 +2 x1237 +4 x1238 +1 x1239 +2 x1240 +2 x1241 +4 x1242 +1 x1243 +2 x1244 +2 x1245 +4 x1246 +1 x1247 +2 x1248 +2 x1249 +4 x1250 +1 x1251 +2 x1252 +2 x1253 +4 x1254 +1 x1255 +2 x1256 +2 x1257 +4 x1258 +1 x1259 +2 x1260 +2 x1261 +4 x1262 +1 x1263 +2 x1264 +2 x1265 +4 x1266 +1 x1267 +2 x1268 +2 x1269 +4 x1270 +1 x1271 +2 x1272 +2 x1273 +4 x1274 +1 x1275 +2 x1276 +2 x1277 +4 x1278 +1 x1279 +2 x1280 +2 x1281 +4 x1282 +1 x1283 +2 x1284 +2 x1285 +4 x1286 +1 x1287 +2 x1288 +2 x1289 +4 x1290 +1 x1291 +2 x1292 +2 x1293 +4 x1294 +1 x1295 +2 x1296 +2 x1297 +4 x1298 +1 x1299 +2 x1300 +2 x1301 +4 x1302 = 90 ;
+1 x463 +2 x464 +2 x465 +4 x466 +1 x467 +2 x468 +2 x469 +4 x470 +1 x471 +2 x472 +2 x473 +4 x474 +1 x475 +2 x476 +2 x477 +4 x478 +1 x479 +2 x480 +2 x481 +4 x482 +1 x483 +2 x484 +2 x485 +4 x486 +1 x487 +2 x488 +2 x489 +4 x490 +1 x491 +2 x492 +2 x493 +4 x494 +1 x495 +2 x496 +2 x497 +4 x498 +1 x499 +2 x500 +2 x501 +4 x502 +1 x503 +2 x504 +2 x505 +4 x506 +1 x507 +2 x508 +2 x509 +4 x510 +1 x511 +2 x512 +2 x513 +4 x514 +1 x515 +2 x516 +2 x517 +4 x518 +1 x519 +2 x520 +2 x521 +4 x522 +1 x523 +2 x524 +2 x525 +4 x526 +1 x527 +2 x528 +2 x529 +4 x530 +1 x531 +2 x532 +2 x533 +4 x534 +1 x535 +2 x536 +2 x537 +4 x538 +1 x539 +2 x540 +2 x541 +4 x542 +1 x543 +2 x544 +2 x545 +4 x546 +1 x1303 +2 x1304 +2 x1305 +4 x1306 +1 x1307 +2 x1308 +2 x1309 +4 x1310 +1 x1311 +2 x1312 +2 x1313 +4 x1314 +1 x1315 +2 x1316 +2 x1317 +4 x1318 +1 x1319 +2 x1320 +2 x1321 +4 x1322 +1 x1323 +2 x1324 +2 x1325 +4 x1326 +1 x1327 +2 x1328 +2 x1329 +4 x1330 +1 x1331 +2 x1332 +2 x1333 +4 x1334 +1 x1335 +2 x1336 +2 x1337 +4 x1338 +1 x1339 +2 x1340 +2 x1341 +4 x1342 +1 x1343 +2 x1344 +2 x1345 +4 x1346 +1 x1347 +2 x1348 +2 x1349 +4 x1350 +1 x1351 +2 x1352 +2 x1353 +4 x1354 +1 x1355 +2 x1356 +2 x1357 +4 x1358 +1 x1359 +2 x1360 +2 x1361 +4 x1362 +1 x1363 +2 x1364 +2 x1365 +4 x1366 +1 x1367 +2 x1368 +2 x1369 +4 x1370 +1 x1371 +2 x1372 +2 x1373 +4 x1374 +1 x1375 +2 x1376 +2 x1377 +4 x1378 +1 x1379 +2 x1380 +2 x1381 +4 x1382 +1 x1383 +2 x1384 +2 x1385 +4 x1386 = 90 ;
+1 x547 +2 x548 +2 x549 +4 x550 +1 x551 +2 x552 +2 x553 +4 x554 +1 x555 +2 x556 +2 x557 +4 x558 +1 x559 +2 x560 +2 x561 +4 x562 +1 x563 +2 x564 +2 x565 +4 x566 +1 x567 +2 x568 +2 x569 +4 x570 +1 x571 +2 x572 +2 x573 +4 x574 +1 x575 +2 x576 +2 x577 +4 x578 +1 x579 +2 x580 +2 x581 +4 x582 +1 x583 +2 x584 +2 x585 +4 x586 +1 x587 +2 x588 +2 x589 +4 x590 +1 x591 +2 x592 +2 x593 +4 x594 +1 x595 +2 x596 +2 x597 +4 x598 +1 x599 +2 x600 +2 x601 +4 x602 +1 x603 +2 x604 +2 x605 +4 x606 +1 x607 +2 x608 +2 x609 +4 x610 +1 x611 +2 x612 +2 x613 +4 x614 +1 x615 +2 x616 +2 x617 +4 x618 +1 x619 +2 x620 +2 x621 +4 x622 +1 x623 +2 x624 +2 x625 +4 x626 +1 x627 +2 x628 +2 x629 +4 x630 +1 x1387 +2 x1388 +2 x1389 +4 x1390 +1 x1391 +2 x1392 +2 x1393 +4 x1394 +1 x1395 +2 x1396 +2 x1397 +4 x1398 +1 x1399 +2 x1400 +2 x1401 +4 x1402 +1 x1403 +2 x1404 +2 x1405 +4 x1406 +1 x1407 +2 x1408 +2 x1409 +4 x1410 +1 x1411 +2 x1412 +2 x1413 +4 x1414 +1 x1415 +2 x1416 +2 x1417 +4 x1418 +1 x1419 +2 x1420 +2 x1421 +4 x1422 +1 x1423 +2 x1424 +2 x1425 +4 x1426 +1 x1427 +2 x1428 +2 x1429 +4 x1430 +1 x1431 +2 x1432 +2 x1433 +4 x1434 +1 x1435 +2 x1436 +2 x1437 +4 x1438 +1 x1439 +2 x1440 +2 x1441 +4 x1442 +1 x1443 +2 x1444 +2 x1445 +4 x1446 +1 x1447 +2 x1448 +2 x1449 +4 x1450 +1 x1451 +2 x1452 +2 x1453 +4 x1454 +1 x1455 +2 x1456 +2 x1457 +4 x1458 +1 x1459 +2 x1460 +2 x1461 +4 x1462 +1 x1463 +2 x1464 +2 x1465 +4 x1466 +1 x1467 +2 x1468 +2 x1469 +4 x1470 = 90 ;
+1 x631 +2 x632 +2 x633 +4 x634 +1 x635 +2 x636 +2 x637 +4 x638 +1 x639 +2 x640 +2 x641 +4 x642 +1 x643 +2 x644 +2 x645 +4 x646 +1 x647 +2 x648 +2 x649 +4 x650 +1 x651 +2 x652 +2 x653 +4 x654 +1 x655 +2 x656 +2 x657 +4 x658 +1 x659 +2 x660 +2 x661 +4 x662 +1 x663 +2 x664 +2 x665 +4 x666 +1 x667 +2 x668 +2 x669 +4 x670 +1 x671 +2 x672 +2 x673 +4 x674 +1 x675 +2 x676 +2 x677 +4 x678 +1 x679 +2 x680 +2 x681 +4 x682 +1 x683 +2 x684 +2 x685 +4 x686 +1 x687 +2 x688 +2 x689 +4 x690 +1 x691 +2 x692 +2 x693 +4 x694 +1 x695 +2 x696 +2 x697 +4 x698 +1 x699 +2 x700 +2 x701 +4 x702 +1 x703 +2 x704 +2 x705 +4 x706 +1 x707 +2 x708 +2 x709 +4 x710 +1 x711 +2 x712 +2 x713 +4 x714 +1 x1471 +2 x1472 +2 x1473 +4 x1474 +1 x1475 +2 x1476 +2 x1477 +4 x1478 +1 x1479 +2 x1480 +2 x1481 +4 x1482 +1 x1483 +2 x1484 +2 x1485 +4 x1486 +1 x1487 +2 x1488 +2 x1489 +4 x1490 +1 x1491 +2 x1492 +2 x1493 +4 x1494 +1 x1495 +2 x1496 +2 x1497 +4 x1498 +1 x1499 +2 x1500 +2 x1501 +4 x1502 +1 x1503 +2 x1504 +2 x1505 +4 x1506 +1 x1507 +2 x1508 +2 x1509 +4 x1510 +1 x1511 +2 x1512 +2 x1513 +4 x1514 +1 x1515 +2 x1516 +2 x1517 +4 x1518 +1 x1519 +2 x1520 +2 x1521 +4 x1522 +1 x1523 +2 x1524 +2 x1525 +4 x1526 +1 x1527 +2 x1528 +2 x1529 +4 x1530 +1 x1531 +2 x1532 +2 x1533 +4 x1534 +1 x1535 +2 x1536 +2 x1537 +4 x1538 +1 x1539 +2 x1540 +2 x1541 +4 x1542 +1 x1543 +2 x1544 +2 x1545 +4 x1546 +1 x1547 +2 x1548 +2 x1549 +4 x1550 +1 x1551 +2 x1552 +2 x1553 +4 x1554 = 90 ;
+1 x715 +2 x716 +2 x717 +4 x718 +1 x719 +2 x720 +2 x721 +4 x722 +1 x723 +2 x724 +2 x725 +4 x726 +1 x727 +2 x728 +2 x729 +4 x730 +1 x731 +2 x732 +2 x733 +4 x734 +1 x735 +2 x736 +2 x737 +4 x738 +1 x739 +2 x740 +2 x741 +4 x742 +1 x743 +2 x744 +2 x745 +4 x746 +1 x747 +2 x748 +2 x749 +4 x750 +1 x751 +2 x752 +2 x753 +4 x754 +1 x755 +2 x756 +2 x757 +4 x758 +1 x759 +2 x760 +2 x761 +4 x762 +1 x763 +2 x764 +2 x765 +4 x766 +1 x767 +2 x768 +2 x769 +4 x770 +1 x771 +2 x772 +2 x773 +4 x774 +1 x775 +2 x776 +2 x777 +4 x778 +1 x779 +2 x780 +2 x781 +4 x782 +1 x783 +2 x784 +2 x785 +4 x786 +1 x787 +2 x788 +2 x789 +4 x790 +1 x791 +2 x792 +2 x793 +4 x794 +1 x795 +2 x796 +2 x797 +4 x798 +1 x1555 +2 x1556 +2 x1557 +4 x1558 +1 x1559 +2 x1560 +2 x1561 +4 x1562 +1 x1563 +2 x1564 +2 x1565 +4 x1566 +1 x1567 +2 x1568 +2 x1569 +4 x1570 +1 x1571 +2 x1572 +2 x1573 +4 x1574 +1 x1575 +2 x1576 +2 x1577 +4 x1578 +1 x1579 +2 x1580 +2 x1581 +4 x1582 +1 x1583 +2 x1584 +2 x1585 +4 x1586 +1 x1587 +2 x1588 +2 x1589 +4 x1590 +1 x1591 +2 x1592 +2 x1593 +4 x1594 +1 x1595 +2 x1596 +2 x1597 +4 x1598 +1 x1599 +2 x1600 +2 x1601 +4 x1602 +1 x1603 +2 x1604 +2 x1605 +4 x1606 +1 x1607 +2 x1608 +2 x1609 +4 x1610 +1 x1611 +2 x1612 +2 x1613 +4 x1614 +1 x1615 +2 x1616 +2 x1617 +4 x1618 +1 x1619 +2 x1620 +2 x1621 +4 x1622 +1 x1623 +2 x1624 +2 x1625 +4 x1626 +1 x1627 +2 x1628 +2 x1629 +4 x1630 +1 x1631 +2 x1632 +2 x1633 +4 x1634 +1 x1635 +2 x1636 +2 x1637 +4 x1638 = 90 ;
+1 x799 +2 x800 +2 x801 +4 x802 +1 x803 +2 x804 +2 x805 +4 x806 +1 x807 +2 x808 +2 x809 +4 x810 +1 x811 +2 x812 +2 x813 +4 x814 +1 x815 +2 x816 +2 x817 +4 x818 +1 x819 +2 x820 +2 x821 +4 x822 +1 x823 +2 x824 +2 x825 +4 x826 +1 x827 +2 x828 +2 x829 +4 x830 +1 x831 +2 x832 +2 x833 +4 x834 +1 x835 +2 x836 +2 x837 +4 x838 +1 x839 +2 x840 +2 x841 +4 x842 +1 x843 +2 x844 +2 x845 +4 x846 +1 x847 +2 x848 +2 x849 +4 x850 +1 x851 +2 x852 +2 x853 +4 x854 +1 x855 +2 x856 +2 x857 +4 x858 +1 x859 +2 x860 +2 x861 +4 x862 +1 x863 +2 x864 +2 x865 +4 x866 +1 x867 +2 x868 +2 x869 +4 x870 +1 x871 +2 x872 +2 x873 +4 x874 +1 x875 +2 x876 +2 x877 +4 x878 +1 x879 +2 x880 +2 x881 +4 x882 +1 x1639 +2 x1640 +2 x1641 +4 x1642 +1 x1643 +2 x1644 +2 x1645 +4 x1646 +1 x1647 +2 x1648 +2 x1649 +4 x1650 +1 x1651 +2 x1652 +2 x1653 +4 x1654 +1 x1655 +2 x1656 +2 x1657 +4 x1658 +1 x1659 +2 x1660 +2 x1661 +4 x1662 +1 x1663 +2 x1664 +2 x1665 +4 x1666 +1 x1667 +2 x1668 +2 x1669 +4 x1670 +1 x1671 +2 x1672 +2 x1673 +4 x1674 +1 x1675 +2 x1676 +2 x1677 +4 x1678 +1 x1679 +2 x1680 +2 x1681 +4 x1682 +1 x1683 +2 x1684 +2 x1685 +4 x1686 +1 x1687 +2 x1688 +2 x1689 +4 x1690 +1 x1691 +2 x1692 +2 x1693 +4 x1694 +1 x1695 +2 x1696 +2 x1697 +4 x1698 +1 x1699 +2 x1700 +2 x1701 +4 x1702 +1 x1703 +2 x1704 +2 x1705 +4 x1706 +1 x1707 +2 x1708 +2 x1709 +4 x1710 +1 x1711 +2 x1712 +2 x1713 +4 x1714 +1 x1715 +2 x1716 +2 x1717 +4 x1718 +1 x1719 +2 x1720 +2 x1721 +4 x1722 = 90 ;
+1 x883 +2 x884 +2 x885 +4 x886 +1 x887 +2 x888 +2 x889 +4 x890 +1 x891 +2 x892 +2 x893 +4 x894 +1 x895 +2 x896 +2 x897 +4 x898 +1 x899 +2 x900 +2 x901 +4 x902 +1 x903 +2 x904 +2 x905 +4 x906 +1 x907 +2 x908 +2 x909 +4 x910 +1 x911 +2 x912 +2 x913 +4 x914 +1 x915 +2 x916 +2 x917 +4 x918 +1 x919 +2 x920 +2 x921 +4 x922 +1 x923 +2 x924 +2 x925 +4 x926 +1 x927 +2 x928 +2 x929 +4 x930 +1 x931 +2 x932 +2 x933 +4 x934 +1 x935 +2 x936 +2 x937 +4 x938 +1 x939 +2 x940 +2 x941 +4 x942 +1 x943 +2 x944 +2 x945 +4 x946 +1 x947 +2 x948 +2 x949 +4 x950 +1 x951 +2 x952 +2 x953 +4 x954 +1 x955 +2 x956 +2 x957 +4 x958 +1 x959 +2 x960 +2 x961 +4 x962 +1 x963 +2 x964 +2 x965 +4 x966 +1 x1723 +2 x1724 +2 x1725 +4 x1726 +1 x1727 +2 x1728 +2 x1729 +4 x1730 +1 x1731 +2 x1732 +2 x1733 +4 x1734 +1 x1735 +2 x1736 +2 x1737 +4 x1738 +1 x1739 +2 x1740 +2 x1741 +4 x1742 +1 x1743 +2 x1744 +2 x1745 +4 x1746 +1 x1747 +2 x1748 +2 x1749 +4 x1750 +1 x1751 +2 x1752 +2 x1753 +4 x1754 +1 x1755 +2 x1756 +2 x1757 +4 x1758 +1 x1759 +2 x1760 +2 x1761 +4 x1762 +1 x1763 +2 x1764 +2 x1765 +4 x1766 +1 x1767 +2 x1768 +2 x1769 +4 x1770 +1 x1771 +2 x1772 +2 x1773 +4 x1774 +1 x1775 +2 x1776 +2 x1777 +4 x1778 +1 x1779 +2 x1780 +2 x1781 +4 x1782 +1 x1783 +2 x1784 +2 x1785 +4 x1786 +1 x1787 +2 x1788 +2 x1789 +4 x1790 +1 x1791 +2 x1792 +2 x1793 +4 x1794 +1 x1795 +2 x1796 +2 x1797 +4 x1798 +1 x1799 +2 x1800 +2 x1801 +4 x1802 +1 x1803 +2 x1804 +2 x1805 +4 x1806 = 90 ;
